     Program PWSCF v.6.8 starts on 16Apr2022 at 12:42:18

     R & G space division:  proc/nbgrp/npool/nimage =       2

     Reading input from Ta2C.scf.in

     Current dimensions of program PWSCF are:
     Max number of different atomic species (ntypx) = 10
     Max number of k-points (npk) =  40000
     Max angular momentum in pseudopotentials (lmaxx) =  4
     file Ta.pbesol-spfn-rrkjus_psl.1.0.0.UPF: wavefunction(s)  5S 5P renormalized
     Message from routine setup:
     using ibrav=0 with symmetry is DISCOURAGED, use correct ibrav instead

     Subspace diagonalization in iterative solution of the eigenvalue problem:
     a serial algorithm will be used

     Using Slab Decomposition

     bravais-lattice index     =            0
     lattice parameter (alat)  =       5.5500  a.u.
     unit-cell volume          =    1602.9280 (a.u.)^3
     number of atoms/cell      =            3
     number of atomic types    =            2
     number of electrons       =        58.00
     number of Kohn-Sham states=           35
     kinetic-energy cutoff     =     150.0000  Ry
     charge density cutoff     =     700.0000  Ry
     scf convergence threshold =      1.0E-12
     mixing beta               =       0.7000
     number of iterations used =            8  plain     mixing
     Exchange-correlation= PBESOL
                           (   1   4  10   8   0   0   0)

     celldm(1)=   5.550000  celldm(2)=   0.000000  celldm(3)=   0.000000
     celldm(4)=   0.000000  celldm(5)=   0.000000  celldm(6)=   0.000000

     crystal axes: (cart. coord. in units of alat)
               a(1) = (   1.040524   0.000000   0.000000 )
               a(2) = (  -0.520262   0.901120   0.000000 )
               a(3) = (   0.000000   0.000000  10.000000 )

     reciprocal axes: (cart. coord. in units 2 pi/alat)
               b(1) = (  0.961054  0.554865  0.000000 )
               b(2) = (  0.000000  1.109730  0.000000 )
               b(3) = (  0.000000  0.000000  0.100000 )

     PseudoPot. # 1 for Ta read from file:
     /shared/home/as3359/pseudo/Ta.pbesol-spfn-rrkjus_psl.1.0.0.UPF
     MD5 check sum: f099565ffaca9b150a52e9412a28e20b
     Pseudo is Ultrasoft + core correction, Zval = 27.0
     Generated using &quot;atomic&quot; code by A. Dal Corso  v.6.3
     Using radial grid of 1273 points,  8 beta functions with:
                l(1) =   0
                l(2) =   0
                l(3) =   1
                l(4) =   1
                l(5) =   2
                l(6) =   2
                l(7) =   3
                l(8) =   3
     Q(r) pseudized with 0 coefficients

     PseudoPot. # 2 for C  read from file:
     /shared/home/as3359/pseudo/C.pbesol-n-rrkjus_psl.1.0.0.UPF
     MD5 check sum: 05995be603a8a7c99da3dc4413f31573
     Pseudo is Ultrasoft + core correction, Zval =  4.0
     Generated using &quot;atomic&quot; code by A. Dal Corso  v.6.3MaX
     Using radial grid of 1073 points,  4 beta functions with:
                l(1) =   0
                l(2) =   0
                l(3) =   1
                l(4) =   1
     Q(r) pseudized with 0 coefficients

     atomic species   valence    mass     pseudopotential
        Ta            27.00   180.94788     Ta( 1.00)
        C              4.00    12.01070     C ( 1.00)

     12 Sym. Ops., with inversion, found

   Cartesian axes

     site n.     atom                  positions (alat units)
         1           C   tau(   1) = (   0.0000000   0.0000000   0.0000000  )
         2           Ta  tau(   2) = (   0.5202621   0.3003735  -0.4102757  )
         3           Ta  tau(   3) = (   0.0000000   0.6007470   0.4102757  )

     number of k points=    27  Marzari-Vanderbilt smearing, width (Ry)=  0.0010
                       cart. coord. in units 2pi/alat
        k(    1) = (   0.0000000   0.0000000   0.0000000), wk =   0.0088889
        k(    2) = (   0.0000000   0.0739820   0.0000000), wk =   0.0533333
        k(    3) = (   0.0000000   0.1479639   0.0000000), wk =   0.0533333
        k(    4) = (   0.0000000   0.2219459   0.0000000), wk =   0.0533333
        k(    5) = (   0.0000000   0.2959279   0.0000000), wk =   0.0533333
        k(    6) = (   0.0000000   0.3699099   0.0000000), wk =   0.0533333
        k(    7) = (   0.0000000   0.4438918   0.0000000), wk =   0.0533333
        k(    8) = (   0.0000000   0.5178738   0.0000000), wk =   0.0533333
        k(    9) = (   0.0640703   0.1109730   0.0000000), wk =   0.0533333
        k(   10) = (   0.0640703   0.1849549   0.0000000), wk =   0.1066667
        k(   11) = (   0.0640703   0.2589369   0.0000000), wk =   0.1066667
        k(   12) = (   0.0640703   0.3329189   0.0000000), wk =   0.1066667
        k(   13) = (   0.0640703   0.4069008   0.0000000), wk =   0.1066667
        k(   14) = (   0.0640703   0.4808828   0.0000000), wk =   0.1066667
        k(   15) = (   0.0640703   0.5548648   0.0000000), wk =   0.0533333
        k(   16) = (   0.1281405   0.2219459   0.0000000), wk =   0.0533333
        k(   17) = (   0.1281405   0.2959279   0.0000000), wk =   0.1066667
        k(   18) = (   0.1281405   0.3699099   0.0000000), wk =   0.1066667
        k(   19) = (   0.1281405   0.4438918   0.0000000), wk =   0.1066667
        k(   20) = (   0.1281405   0.5178738   0.0000000), wk =   0.1066667
        k(   21) = (   0.1922108   0.3329189   0.0000000), wk =   0.0533333
        k(   22) = (   0.1922108   0.4069008   0.0000000), wk =   0.1066667
        k(   23) = (   0.1922108   0.4808828   0.0000000), wk =   0.1066667
        k(   24) = (   0.1922108   0.5548648   0.0000000), wk =   0.0533333
        k(   25) = (   0.2562811   0.4438918   0.0000000), wk =   0.0533333
        k(   26) = (   0.2562811   0.5178738   0.0000000), wk =   0.1066667
        k(   27) = (   0.3203513   0.5548648   0.0000000), wk =   0.0177778

     Initial potential from superposition of free atoms

     starting charge   57.99842, renormalised to   58.00000

     negative rho (up, down):  5.504E-05 0.000E+00
     Starting wfcs are   38 randomized atomic wfcs

     Self-consistent Calculation

     iteration #  1     ecut=   150.00 Ry     beta= 0.70
     Davidson diagonalization with overlap
     ethr =  1.00E-02,  avg # of iterations =  2.2

     negative rho (up, down):  1.128E-05 0.000E+00

     total energy              =   -1372.45350675 Ry
     estimated scf accuracy    <       1.29795596 Ry

[...]

     total energy              =   -1373.25657661 Ry
     estimated scf accuracy    <          3.2E-12 Ry

     iteration # 19     ecut=   150.00 Ry     beta= 0.70
     Davidson diagonalization with overlap
     ethr =  1.00E-13,  avg # of iterations =  1.0

[...]

     End of self-consistent calculation

          k = 0.0000 0.0000 0.0000 ( 49825 PWs)   bands (ev):

   -68.3580 -68.3092 -35.3825 -34.7778 -34.4830 -34.4830 -34.4144 -34.4144
   -20.0205 -20.0072 -19.9832 -19.9832 -19.9779 -19.9779 -19.9504 -19.9504
   -19.9437 -19.9437 -19.9307 -19.9255 -19.8666 -19.8651 -13.2990  -7.7075
    -4.4624  -4.4624  -1.9544  -1.0167  -0.8017  -0.2793  -0.2793   1.6604
     1.6604   2.8077   2.8077

[...]

          k = 0.3204 0.5549 0.0000 ( 49803 PWs)   bands (ev):

   -68.2833 -68.2833 -35.1080 -35.1080 -35.0644 -34.8387 -34.7470 -34.7470
   -20.0000 -19.9926 -19.9926 -19.9851 -19.9851 -19.9759 -19.9673 -19.9430
   -19.9430 -19.9384 -19.9115 -19.9115 -19.8830 -19.8830 -11.6671  -6.1251
    -6.1251  -4.4888  -1.1941  -1.0635  -1.0635   0.3369   2.3430   2.3430
     3.3942   3.3942   6.5283

     the Fermi energy is    -0.1709 ev

!    total energy              =   -1373.25657661 Ry
     estimated scf accuracy    <          6.2E-13 Ry
     smearing contrib. (-TS)   =      -0.00001628 Ry
     internal energy E=F+TS    =   -1373.25656032 Ry

     The total energy is F=E-TS. E is the sum of the following terms:
     one-electron contribution =  -10823.31373013 Ry
     hartree contribution      =    5439.83151361 Ry
     xc contribution           =    -138.76491930 Ry
     ewald contribution        =    4148.99057550 Ry

     convergence has been achieved in  19 iterations

     negative rho (up, down):  6.521E-05 0.000E+00

     Forces acting on atoms (cartesian axes, Ry/au):

     atom    1 type  2   force =     0.00000000    0.00000000    0.00000000
     atom    2 type  1   force =     0.00000000   -0.00000000   -0.00028668
     atom    3 type  1   force =     0.00000000    0.00000000    0.00028668

     Total force =     0.000405     Total SCF correction =     0.000005

     Computing stress (Cartesian axis) and pressure

     negative rho (up, down):  6.521E-05 0.000E+00
          total   stress  (Ry/bohr**3)                   (kbar)     P=        0.34
   0.00000336  -0.00000000   0.00000000            0.49       -0.00        0.00
  -0.00000000   0.00000336   0.00000000           -0.00        0.49        0.00
   0.00000000   0.00000000   0.00000016            0.00        0.00        0.02

     Writing output data file /scratch/as3359/Ta2C_bandsdos/Ta.save/

     General routines

     Parallel routines

   This run was terminated on:  12:48:47  16Apr2022

   JOB DONE.