     Program PWSCF v.6.8 starts on 24Mar2022 at 14:59:23

     R & G space division:  proc/nbgrp/npool/nimage =       2

     Reading input from Ta3C2O.vcrelax.in

     Current dimensions of program PWSCF are:
     Max number of different atomic species (ntypx) = 10
     Max number of k-points (npk) =  40000
     Max angular momentum in pseudopotentials (lmaxx) =  4
     file Ta.pbesol-spfn-rrkjus_psl.1.0.0.UPF: wavefunction(s)  5S 5P renormalized

     Subspace diagonalization in iterative solution of the eigenvalue problem:
     a serial algorithm will be used

     Using Slab Decomposition

     bravais-lattice index     =            0
     lattice parameter (alat)  =       5.5500  a.u.
     unit-cell volume          =    1549.0441 (a.u.)^3
     number of atoms/cell      =            6
     number of atomic types    =            3
     number of electrons       =        95.00
     number of Kohn-Sham states=           58
     kinetic-energy cutoff     =      70.0000  Ry
     charge density cutoff     =     700.0000  Ry
     scf convergence threshold =      1.0E-12
     mixing beta               =       0.7000
     number of iterations used =            8  plain     mixing
     energy convergence thresh.=      1.0E-04
     force convergence thresh. =      1.0E-03
     press convergence thresh. =      5.0E-01
     Exchange-correlation= PBESOL
                           (   1   4  10   8   0   0   0)
     nstep                     =           50

     celldm(1)=   5.550000  celldm(2)=   0.000000  celldm(3)=   0.000000
     celldm(4)=   0.000000  celldm(5)=   0.000000  celldm(6)=   0.000000

     crystal axes: (cart. coord. in units of alat)
               a(1) = (   1.023061   0.000071   0.000000 )
               a(2) = (  -0.511470   0.885658   0.000000 )
               a(3) = (   0.000000   0.000000  10.000000 )

     reciprocal axes: (cart. coord. in units 2 pi/alat)
               b(1) = (  0.977420  0.564462  0.000000 )
               b(2) = ( -0.000078  1.129060  0.000000 )
               b(3) = (  0.000000  0.000000  0.100000 )

     PseudoPot. # 1 for Ta read from file:
     /shared/home/as3359/pseudo/Ta.pbesol-spfn-rrkjus_psl.1.0.0.UPF
     MD5 check sum: f099565ffaca9b150a52e9412a28e20b
     Pseudo is Ultrasoft + core correction, Zval = 27.0
     Generated using &quot;atomic&quot; code by A. Dal Corso  v.6.3
     Using radial grid of 1273 points,  8 beta functions with:
                l(1) =   0
                l(2) =   0
                l(3) =   1
                l(4) =   1
                l(5) =   2
                l(6) =   2
                l(7) =   3
                l(8) =   3
     Q(r) pseudized with 0 coefficients

     PseudoPot. # 2 for C  read from file:
     /shared/home/as3359/pseudo/C.pbesol-n-rrkjus_psl.1.0.0.UPF
     MD5 check sum: 05995be603a8a7c99da3dc4413f31573
     Pseudo is Ultrasoft + core correction, Zval =  4.0
     Generated using &quot;atomic&quot; code by A. Dal Corso  v.6.3MaX
     Using radial grid of 1073 points,  4 beta functions with:
                l(1) =   0
                l(2) =   0
                l(3) =   1
                l(4) =   1
     Q(r) pseudized with 0 coefficients

     PseudoPot. # 3 for O  read from file:
     /shared/home/as3359/pseudo/O.pbesol-n-rrkjus_psl.1.0.0.UPF
     MD5 check sum: dd9bad2534826f832ffc9296591fc5de
     Pseudo is Ultrasoft + core correction, Zval =  6.0
     Generated using &quot;atomic&quot; code by A. Dal Corso  v.6.3MaX
     Using radial grid of 1095 points,  4 beta functions with:
                l(1) =   0
                l(2) =   0
                l(3) =   1
                l(4) =   1
     Q(r) pseudized with 0 coefficients

     atomic species   valence    mass     pseudopotential
        Ta            27.00   180.94788     Ta( 1.00)
        C              4.00    12.01070     C ( 1.00)
        O              6.00    15.99940     O ( 1.00)

     No symmetry found

   Cartesian axes

     site n.     atom                  positions (alat units)
         1           Ta  tau(   1) = (   0.0000408   0.5904619   0.4908521  )
         2           C   tau(   2) = (   0.0000000   0.0000000   0.9463553  )
         3           Ta  tau(   3) = (   0.5115510   0.2952663   1.4781894  )
         4           C   tau(   4) = (   0.0000408   0.5904619   2.0100231  )
         5           Ta  tau(   5) = (   0.0000000   0.0000000   2.4655247  )
         6           O   tau(   6) = (   0.0000408   0.5904619   3.2000000  )

     number of k points=    74  Marzari-Vanderbilt smearing, width (Ry)=  0.0010
                       cart. coord. in units 2pi/alat
        k(    1) = (   0.0000000   0.0000000   0.0000000), wk =   0.0138889
        k(    2) = (  -0.0000065   0.0940883   0.0000000), wk =   0.0277778
        k(    3) = (  -0.0000130   0.1881766   0.0000000), wk =   0.0277778
        k(    4) = (  -0.0000195   0.2822649   0.0000000), wk =   0.0277778
        k(    5) = (  -0.0000260   0.3763532   0.0000000), wk =   0.0277778
        k(    6) = (  -0.0000325   0.4704415   0.0000000), wk =   0.0277778
        k(    7) = (   0.0000390  -0.5645298   0.0000000), wk =   0.0138889
        k(    8) = (   0.0814516   0.0470385   0.0000000), wk =   0.0277778
        k(    9) = (   0.0814451   0.1411268   0.0000000), wk =   0.0277778
        k(   10) = (   0.0814386   0.2352151   0.0000000), wk =   0.0277778
        k(   11) = (   0.0814322   0.3293034   0.0000000), wk =   0.0277778
        k(   12) = (   0.0814257   0.4233917   0.0000000), wk =   0.0277778
        k(   13) = (   0.0814192   0.5174800   0.0000000), wk =   0.0277778
        k(   14) = (   0.0814906  -0.5174912   0.0000000), wk =   0.0277778
        k(   15) = (   0.0814841  -0.4234030   0.0000000), wk =   0.0277778
        k(   16) = (   0.0814776  -0.3293147   0.0000000), wk =   0.0277778
        k(   17) = (   0.0814711  -0.2352264   0.0000000), wk =   0.0277778
        k(   18) = (   0.0814646  -0.1411381   0.0000000), wk =   0.0277778
        k(   19) = (   0.0814581  -0.0470498   0.0000000), wk =   0.0277778
        k(   20) = (   0.1629033   0.0940771   0.0000000), wk =   0.0277778
        k(   21) = (   0.1628968   0.1881653   0.0000000), wk =   0.0277778
        k(   22) = (   0.1628903   0.2822536   0.0000000), wk =   0.0277778
        k(   23) = (   0.1628838   0.3763419   0.0000000), wk =   0.0277778
        k(   24) = (   0.1628773   0.4704302   0.0000000), wk =   0.0277778
        k(   25) = (   0.1628708   0.5645185   0.0000000), wk =   0.0277778
        k(   26) = (   0.1629422  -0.4704527   0.0000000), wk =   0.0277778
        k(   27) = (   0.1629357  -0.3763644   0.0000000), wk =   0.0277778
        k(   28) = (   0.1629292  -0.2822761   0.0000000), wk =   0.0277778
        k(   29) = (   0.1629227  -0.1881878   0.0000000), wk =   0.0277778
        k(   30) = (   0.1629162  -0.0940995   0.0000000), wk =   0.0277778
        k(   31) = (   0.1629098  -0.0000112   0.0000000), wk =   0.0277778
        k(   32) = (   0.2443549   0.1411156   0.0000000), wk =   0.0277778
        k(   33) = (   0.2443484   0.2352039   0.0000000), wk =   0.0277778
        k(   34) = (   0.2443419   0.3292922   0.0000000), wk =   0.0277778
        k(   35) = (   0.2443354   0.4233805   0.0000000), wk =   0.0277778
        k(   36) = (   0.2443289   0.5174688   0.0000000), wk =   0.0277778
        k(   37) = (   0.2443224   0.6115571   0.0000000), wk =   0.0277778
        k(   38) = (   0.2443938  -0.4234142   0.0000000), wk =   0.0277778
        k(   39) = (   0.2443873  -0.3293259   0.0000000), wk =   0.0277778
        k(   40) = (   0.2443809  -0.2352376   0.0000000), wk =   0.0277778
        k(   41) = (   0.2443744  -0.1411493   0.0000000), wk =   0.0277778
        k(   42) = (   0.2443679  -0.0470610   0.0000000), wk =   0.0277778
        k(   43) = (   0.2443614   0.0470273   0.0000000), wk =   0.0277778
        k(   44) = (   0.3258065   0.1881541   0.0000000), wk =   0.0277778
        k(   45) = (   0.3258000   0.2822424   0.0000000), wk =   0.0277778
        k(   46) = (   0.3257935   0.3763307   0.0000000), wk =   0.0277778
        k(   47) = (   0.3257870   0.4704190   0.0000000), wk =   0.0277778
        k(   48) = (   0.3257806   0.5645073   0.0000000), wk =   0.0277778
        k(   49) = (   0.3257741   0.6585956   0.0000000), wk =   0.0277778
        k(   50) = (   0.3258455  -0.3763757   0.0000000), wk =   0.0277778
        k(   51) = (   0.3258390  -0.2822874   0.0000000), wk =   0.0277778
        k(   52) = (   0.3258325  -0.1881991   0.0000000), wk =   0.0277778
        k(   53) = (   0.3258260  -0.0941108   0.0000000), wk =   0.0277778
        k(   54) = (   0.3258195  -0.0000225   0.0000000), wk =   0.0277778
        k(   55) = (   0.3258130   0.0940658   0.0000000), wk =   0.0277778
        k(   56) = (   0.4072581   0.2351926   0.0000000), wk =   0.0277778
        k(   57) = (   0.4072517   0.3292809   0.0000000), wk =   0.0277778
        k(   58) = (   0.4072452   0.4233692   0.0000000), wk =   0.0277778
        k(   59) = (   0.4072387   0.5174575   0.0000000), wk =   0.0277778
        k(   60) = (   0.4072322   0.6115458   0.0000000), wk =   0.0277778
        k(   61) = (   0.4072257   0.7056341   0.0000000), wk =   0.0277778
        k(   62) = (   0.4072971  -0.3293371   0.0000000), wk =   0.0277778
        k(   63) = (   0.4072906  -0.2352488   0.0000000), wk =   0.0277778
        k(   64) = (   0.4072841  -0.1411606   0.0000000), wk =   0.0277778
        k(   65) = (   0.4072776  -0.0470723   0.0000000), wk =   0.0277778
        k(   66) = (   0.4072711   0.0470160   0.0000000), wk =   0.0277778
        k(   67) = (   0.4072646   0.1411043   0.0000000), wk =   0.0277778
        k(   68) = (  -0.4887098  -0.2822312   0.0000000), wk =   0.0138889
        k(   69) = (  -0.4887163  -0.1881429   0.0000000), wk =   0.0277778
        k(   70) = (  -0.4887228  -0.0940546   0.0000000), wk =   0.0277778
        k(   71) = (  -0.4887293   0.0000337   0.0000000), wk =   0.0277778
        k(   72) = (  -0.4887357   0.0941220   0.0000000), wk =   0.0277778
        k(   73) = (  -0.4887422   0.1882103   0.0000000), wk =   0.0277778
        k(   74) = (  -0.4886708  -0.8467609   0.0000000), wk =   0.0138889

     Initial potential from superposition of free atoms

     starting charge   94.99760, renormalised to   95.00000

     negative rho (up, down):  8.040E-05 0.000E+00
     Starting wfcs are   63 randomized atomic wfcs

     Self-consistent Calculation

     iteration #  1     ecut=    70.00 Ry     beta= 0.70
     Davidson diagonalization with overlap
     ethr =  1.00E-02,  avg # of iterations =  2.1

     negative rho (up, down):  1.192E-07 0.000E+00

     total energy              =   -2094.31503689 Ry
     estimated scf accuracy    <       5.18912093 Ry

     iteration #  2     ecut=    70.00 Ry     beta= 0.70
     Davidson diagonalization with overlap
     ethr =  5.46E-03,  avg # of iterations = 11.2
     Minimization algorithm failed to find Fermi energy: reverting to bisection
     Possible cause: smearing is larger than the electronic band-gap.

[...]

     End of self-consistent calculation

[...]
     new conv_thr            =            1.0E-12 Ry

[...]

     WARNING: info= 18 for Hessian
     new trust radius        =       0.2010783577 bohr
     new conv_thr            =            1.0E-12 Ry

[...]

     CASE: enthalpy          _new > enthalpy          _old

[...]

     WARNING: info= 18 for Hessian
     uphill step: resetting bfgs history

[...]

     WARNING: bfgs curvature condition failed, Theta= 0.788
     new trust radius        =       0.2551784336 bohr
     new conv_thr            =            1.0E-12 Ry

[...]

     iteration #  7     ecut=    70.00 Ry     beta= 0.70
     Davidson diagonalization with overlap
     c_bands:  1 eigenvalues not converged
     c_bands:  1 eigenvalues not converged
     c_bands:  1 eigenvalues not converged
     ethr =  1.00E-02,  avg # of iterations = 33.6
     Minimization algorithm failed to find Fermi energy: reverting to bisection
     Possible cause: smearing is larger than the electronic band-gap.

[...]

     number of scf cycles    =  17
     number of bfgs steps    =  15

     enthalpy           old  =   -2098.7291135967 Ry
     enthalpy           new  =   -2098.7291437734 Ry

     CASE: enthalpy          _new < enthalpy          _old

     new trust radius        =       0.0037361944 bohr
     new conv_thr            =            1.0E-14 Ry

     new unit-cell volume =   1601.47288 a.u.^3 (   237.31380 Ang^3 )
     density =      4.07844 g/cm^3

[...]

ATOMIC_POSITIONS (crystal)
Ta            0.3333534763        0.6666889586        0.0685658851
C             0.0000110874        0.0000119936        0.1095560364
Ta            0.6666745241        0.3333418773        0.1545441929
C             0.3333342272        0.6666675337        0.1984808388
Ta           -0.0000187644       -0.0000212661        0.2446930126
O             0.3333121153        0.6666442369        0.2832544782

     Writing output data file /scratch/as3359/Ta3C2O_loop/Ta.save/
     NEW-OLD atomic charge density approx. for the potential

     negative rho (up, down):  1.339E-04 0.000E+00
     extrapolated charge   95.08748, renormalised to   95.00000

[...]

     WARNING: integrated charge=    95.00001314, expected=    95.00000000

[...]

     Energy error            =      6.9E-06 Ry
     Gradient error          =      6.5E-04 Ry/Bohr
     Cell gradient error     =      6.2E-02 kbar

     bfgs converged in  18 scf cycles and  16 bfgs steps
     (criteria: energy <  1.0E-04 Ry, force <  1.0E-03Ry/Bohr, cell <  5.0E-01kbar)

     End of BFGS Geometry Optimization

     Final enthalpy           =   -2098.7291506569 Ry

     File /scratch/as3359/Ta3C2O_loop/Ta.bfgs deleted, as requested
Begin final coordinates
     new unit-cell volume =   1601.47288 a.u.^3 (   237.31380 Ang^3 )
     density =      4.07844 g/cm^3

CELL_PARAMETERS (alat=  5.55000000)
   1.040049433  -0.000000962   0.000000000
  -0.520025553   0.900713953   0.000000000
   0.000000000   0.000000000  10.000000000

ATOMIC_POSITIONS (crystal)
Ta            0.3333534763        0.6666889586        0.0685658851
C             0.0000110874        0.0000119936        0.1095560364
Ta            0.6666745241        0.3333418773        0.1545441929
C             0.3333342272        0.6666675337        0.1984808388
Ta           -0.0000187644       -0.0000212661        0.2446930126
O             0.3333121153        0.6666442369        0.2832544782
End final coordinates

     Writing output data file /scratch/as3359/Ta3C2O_loop/Ta.save/

     Final scf calculation at the relaxed structure.
     The G-vectors are recalculated for the final unit cell
     Results may differ from those at the preceding step.

     Using Slab Decomposition

     bravais-lattice index     =            0
     lattice parameter (alat)  =       5.5500  a.u.
     unit-cell volume          =    1601.4729 (a.u.)^3
     number of atoms/cell      =            6
     number of atomic types    =            3
     number of electrons       =        95.00
     number of Kohn-Sham states=           58
     kinetic-energy cutoff     =      70.0000  Ry
     charge density cutoff     =     700.0000  Ry
     scf convergence threshold =      1.0E-14
     mixing beta               =       0.7000
     number of iterations used =            8  plain     mixing
     press convergence thresh. =      5.0E-01
     Exchange-correlation= PBESOL
                           (   1   4  10   8   0   0   0)

     celldm(1)=   5.550000  celldm(2)=   0.000000  celldm(3)=   0.000000
     celldm(4)=   0.000000  celldm(5)=   0.000000  celldm(6)=   0.000000

     crystal axes: (cart. coord. in units of alat)
               a(1) = (   1.040049  -0.000001   0.000000 )
               a(2) = (  -0.520026   0.900714   0.000000 )
               a(3) = (   0.000000   0.000000  10.000000 )

     reciprocal axes: (cart. coord. in units 2 pi/alat)
               b(1) = (  0.961493  0.555116  0.000000 )
               b(2) = (  0.000001  1.110231  0.000000 )
               b(3) = (  0.000000  0.000000  0.100000 )

     PseudoPot. # 1 for Ta read from file:
     /shared/home/as3359/pseudo/Ta.pbesol-spfn-rrkjus_psl.1.0.0.UPF
     MD5 check sum: f099565ffaca9b150a52e9412a28e20b
     Pseudo is Ultrasoft + core correction, Zval = 27.0
     Generated using &quot;atomic&quot; code by A. Dal Corso  v.6.3
     Using radial grid of 1273 points,  8 beta functions with:
                l(1) =   0
                l(2) =   0
                l(3) =   1
                l(4) =   1
                l(5) =   2
                l(6) =   2
                l(7) =   3
                l(8) =   3
     Q(r) pseudized with 0 coefficients

     PseudoPot. # 2 for C  read from file:
     /shared/home/as3359/pseudo/C.pbesol-n-rrkjus_psl.1.0.0.UPF
     MD5 check sum: 05995be603a8a7c99da3dc4413f31573
     Pseudo is Ultrasoft + core correction, Zval =  4.0
     Generated using &quot;atomic&quot; code by A. Dal Corso  v.6.3MaX
     Using radial grid of 1073 points,  4 beta functions with:
                l(1) =   0
                l(2) =   0
                l(3) =   1
                l(4) =   1
     Q(r) pseudized with 0 coefficients

     PseudoPot. # 3 for O  read from file:
     /shared/home/as3359/pseudo/O.pbesol-n-rrkjus_psl.1.0.0.UPF
     MD5 check sum: dd9bad2534826f832ffc9296591fc5de
     Pseudo is Ultrasoft + core correction, Zval =  6.0
     Generated using &quot;atomic&quot; code by A. Dal Corso  v.6.3MaX
     Using radial grid of 1095 points,  4 beta functions with:
                l(1) =   0
                l(2) =   0
                l(3) =   1
                l(4) =   1
     Q(r) pseudized with 0 coefficients

     atomic species   valence    mass     pseudopotential
        Ta            27.00   180.94788     Ta( 1.00)
        C              4.00    12.01070     C ( 1.00)
        O              6.00    15.99940     O ( 1.00)

     No symmetry found

   Cartesian axes

     site n.     atom                  positions (alat units)
         1           Ta  tau(   1) = (   0.0000088   0.6004957   0.6856589  )
         2           C   tau(   2) = (   0.0000053   0.0000108   1.0955604  )
         3           Ta  tau(   3) = (   0.5200282   0.3002450   1.5454419  )
         4           C   tau(   4) = (  -0.0000001   0.6004764   1.9848084  )
         5           Ta  tau(   5) = (  -0.0000085  -0.0000192   2.4469301  )
         6           O   tau(   6) = (  -0.0000110   0.6004554   2.8325448  )

     number of k points=    74  Marzari-Vanderbilt smearing, width (Ry)=  0.0010
                       cart. coord. in units 2pi/alat
        k(    1) = (   0.0000000   0.0000000   0.0000000), wk =   0.0138889
        k(    2) = (   0.0000001   0.0925192   0.0000000), wk =   0.0277778
        k(    3) = (   0.0000002   0.1850385   0.0000000), wk =   0.0277778
        k(    4) = (   0.0000003   0.2775577   0.0000000), wk =   0.0277778
        k(    5) = (   0.0000003   0.3700770   0.0000000), wk =   0.0277778
        k(    6) = (   0.0000004   0.4625962   0.0000000), wk =   0.0277778
        k(    7) = (  -0.0000005  -0.5551155   0.0000000), wk =   0.0138889
        k(    8) = (   0.0801244   0.0462597   0.0000000), wk =   0.0277778
        k(    9) = (   0.0801245   0.1387789   0.0000000), wk =   0.0277778
        k(   10) = (   0.0801246   0.2312982   0.0000000), wk =   0.0277778
        k(   11) = (   0.0801247   0.3238174   0.0000000), wk =   0.0277778
        k(   12) = (   0.0801248   0.4163367   0.0000000), wk =   0.0277778
        k(   13) = (   0.0801249   0.5088559   0.0000000), wk =   0.0277778
        k(   14) = (   0.0801239  -0.5088558   0.0000000), wk =   0.0277778
        k(   15) = (   0.0801240  -0.4163365   0.0000000), wk =   0.0277778
        k(   16) = (   0.0801241  -0.3238173   0.0000000), wk =   0.0277778
        k(   17) = (   0.0801242  -0.2312980   0.0000000), wk =   0.0277778
        k(   18) = (   0.0801243  -0.1387788   0.0000000), wk =   0.0277778
        k(   19) = (   0.0801244  -0.0462595   0.0000000), wk =   0.0277778
        k(   20) = (   0.1602489   0.0925194   0.0000000), wk =   0.0277778
        k(   21) = (   0.1602490   0.1850386   0.0000000), wk =   0.0277778
        k(   22) = (   0.1602491   0.2775579   0.0000000), wk =   0.0277778
        k(   23) = (   0.1602491   0.3700771   0.0000000), wk =   0.0277778
        k(   24) = (   0.1602492   0.4625964   0.0000000), wk =   0.0277778
        k(   25) = (   0.1602493   0.5551156   0.0000000), wk =   0.0277778
        k(   26) = (   0.1602484  -0.4625961   0.0000000), wk =   0.0277778
        k(   27) = (   0.1602485  -0.3700768   0.0000000), wk =   0.0277778
        k(   28) = (   0.1602485  -0.2775576   0.0000000), wk =   0.0277778
        k(   29) = (   0.1602486  -0.1850383   0.0000000), wk =   0.0277778
        k(   30) = (   0.1602487  -0.0925191   0.0000000), wk =   0.0277778
        k(   31) = (   0.1602488   0.0000001   0.0000000), wk =   0.0277778
        k(   32) = (   0.2403733   0.1387791   0.0000000), wk =   0.0277778
        k(   33) = (   0.2403734   0.2312983   0.0000000), wk =   0.0277778
        k(   34) = (   0.2403735   0.3238176   0.0000000), wk =   0.0277778
        k(   35) = (   0.2403736   0.4163368   0.0000000), wk =   0.0277778
        k(   36) = (   0.2403737   0.5088561   0.0000000), wk =   0.0277778
        k(   37) = (   0.2403737   0.6013753   0.0000000), wk =   0.0277778
        k(   38) = (   0.2403728  -0.4163364   0.0000000), wk =   0.0277778
        k(   39) = (   0.2403729  -0.3238171   0.0000000), wk =   0.0277778
        k(   40) = (   0.2403730  -0.2312979   0.0000000), wk =   0.0277778
        k(   41) = (   0.2403731  -0.1387786   0.0000000), wk =   0.0277778
        k(   42) = (   0.2403731  -0.0462594   0.0000000), wk =   0.0277778
        k(   43) = (   0.2403732   0.0462598   0.0000000), wk =   0.0277778
        k(   44) = (   0.3204978   0.1850388   0.0000000), wk =   0.0277778
        k(   45) = (   0.3204978   0.2775580   0.0000000), wk =   0.0277778
        k(   46) = (   0.3204979   0.3700773   0.0000000), wk =   0.0277778
        k(   47) = (   0.3204980   0.4625965   0.0000000), wk =   0.0277778
        k(   48) = (   0.3204981   0.5551158   0.0000000), wk =   0.0277778
        k(   49) = (   0.3204982   0.6476350   0.0000000), wk =   0.0277778
        k(   50) = (   0.3204972  -0.3700767   0.0000000), wk =   0.0277778
        k(   51) = (   0.3204973  -0.2775574   0.0000000), wk =   0.0277778
        k(   52) = (   0.3204974  -0.1850382   0.0000000), wk =   0.0277778
        k(   53) = (   0.3204975  -0.0925190   0.0000000), wk =   0.0277778
        k(   54) = (   0.3204976   0.0000003   0.0000000), wk =   0.0277778
        k(   55) = (   0.3204977   0.0925195   0.0000000), wk =   0.0277778
        k(   56) = (   0.4006222   0.2312985   0.0000000), wk =   0.0277778
        k(   57) = (   0.4006223   0.3238177   0.0000000), wk =   0.0277778
        k(   58) = (   0.4006224   0.4163370   0.0000000), wk =   0.0277778
        k(   59) = (   0.4006225   0.5088562   0.0000000), wk =   0.0277778
        k(   60) = (   0.4006225   0.6013755   0.0000000), wk =   0.0277778
        k(   61) = (   0.4006226   0.6938947   0.0000000), wk =   0.0277778
        k(   62) = (   0.4006217  -0.3238170   0.0000000), wk =   0.0277778
        k(   63) = (   0.4006218  -0.2312977   0.0000000), wk =   0.0277778
        k(   64) = (   0.4006219  -0.1387785   0.0000000), wk =   0.0277778
        k(   65) = (   0.4006219  -0.0462593   0.0000000), wk =   0.0277778
        k(   66) = (   0.4006220   0.0462600   0.0000000), wk =   0.0277778
        k(   67) = (   0.4006221   0.1387792   0.0000000), wk =   0.0277778
        k(   68) = (  -0.4807466  -0.2775582   0.0000000), wk =   0.0138889
        k(   69) = (  -0.4807466  -0.1850389   0.0000000), wk =   0.0277778
        k(   70) = (  -0.4807465  -0.0925197   0.0000000), wk =   0.0277778
        k(   71) = (  -0.4807464  -0.0000004   0.0000000), wk =   0.0277778
        k(   72) = (  -0.4807463   0.0925188   0.0000000), wk =   0.0277778
        k(   73) = (  -0.4807462   0.1850380   0.0000000), wk =   0.0277778
        k(   74) = (  -0.4807472  -0.8326737   0.0000000), wk =   0.0138889

     Initial potential from superposition of free atoms

     starting charge   94.99760, renormalised to   95.00000

     negative rho (up, down):  9.174E-05 0.000E+00
     Starting wfcs are   63 randomized atomic wfcs

     Self-consistent Calculation

[...]

     iteration # 14     ecut=    70.00 Ry     beta= 0.70
     Davidson diagonalization with overlap
     c_bands:  1 eigenvalues not converged
     ethr =  6.53E-07,  avg # of iterations =  7.7

[...]

     iteration # 16     ecut=    70.00 Ry     beta= 0.70
     Davidson diagonalization with overlap
     ethr =  2.18E-07,  avg # of iterations =  1.4
     Minimization algorithm failed to find Fermi energy: reverting to bisection
     Possible cause: smearing is larger than the electronic band-gap.

[...]

     total energy              =   -2098.72963390 Ry
     estimated scf accuracy    <          2.6E-14 Ry

     iteration # 32     ecut=    70.00 Ry     beta= 0.70
     Davidson diagonalization with overlap
     ethr =  1.00E-13,  avg # of iterations =  1.0

[...]

     End of self-consistent calculation

[...]

          k = 0.4006 0.1388 0.0000 ( 15822 PWs)   bands (ev):

[...]

          k =-0.4807-0.8327 0.0000 ( 15834 PWs)   bands (ev):

   -66.3352 -66.2061 -65.7998 -33.3746 -33.2323 -32.9631 -32.7893 -32.7244
   -32.6049 -32.6002 -32.4248 -32.1243 -17.9928 -17.9815 -17.9799 -17.9615
   -17.9595 -17.9544 -17.9524 -17.9370 -17.8678 -17.8569 -17.8486 -17.8389
   -17.8331 -17.8266 -17.5175 -17.5144 -17.4997 -17.4767 -17.4569 -17.4379
   -17.4226 -16.2977  -9.9644  -8.5994  -5.7826  -4.0954  -3.3368  -2.8457
    -2.7937  -2.5541  -2.0864  -1.9588  -0.2521   0.6222   2.0408   2.4645
     4.2372   4.7589   5.4914   5.9844   6.4135   6.6492   6.8818   7.0880
     7.3938   8.2338

     the Fermi energy is     2.1657 ev

!    total energy              =   -2098.72963390 Ry
     estimated scf accuracy    <          2.3E-15 Ry
     smearing contrib. (-TS)   =      -0.00004763 Ry
     internal energy E=F+TS    =   -2098.72958628 Ry

     The total energy is F=E-TS. E is the sum of the following terms:
     one-electron contribution =  -21206.01914244 Ry
     hartree contribution      =   10655.95662197 Ry
     xc contribution           =    -218.04734710 Ry
     ewald contribution        =    8669.38028129 Ry

     convergence has been achieved in  32 iterations

     negative rho (up, down):  1.006E-04 0.000E+00

     Forces acting on atoms (cartesian axes, Ry/au):

     atom    1 type  1   force =    -0.00000312   -0.00000654    0.00018283
     atom    2 type  2   force =     0.00000107    0.00000279   -0.00028635
     atom    3 type  1   force =    -0.00000032   -0.00000065    0.00065165
     atom    4 type  2   force =    -0.00000207   -0.00000451   -0.00047092
     atom    5 type  1   force =     0.00000007   -0.00000020   -0.00031297
     atom    6 type  3   force =     0.00000436    0.00000910    0.00023577

     Total force =     0.000957     Total SCF correction =     0.000001

     Computing stress (Cartesian axis) and pressure

     negative rho (up, down):  1.006E-04 0.000E+00
          total   stress  (Ry/bohr**3)                   (kbar)     P=       -0.16
   0.00000266   0.00000001   0.00000002            0.39        0.00        0.00
   0.00000001   0.00000262   0.00000005            0.00        0.39        0.01
   0.00000002   0.00000005  -0.00000856            0.00        0.01       -1.26

     Writing output data file /scratch/as3359/Ta3C2O_loop/Ta.save/

     General routines

     Parallel routines

   This run was terminated on:   0:41:56  25Mar2022

   JOB DONE.