     Program PWSCF v.6.8 starts on 25Mar2022 at  1: 8:55

     R & G space division:  proc/nbgrp/npool/nimage =       2

     Waiting for input...
     Reading input from standard input

     Current dimensions of program PWSCF are:
     Max number of different atomic species (ntypx) = 10
     Max number of k-points (npk) =  40000
     Max angular momentum in pseudopotentials (lmaxx) =  4
     file Ta.pbesol-spfn-rrkjus_psl.1.0.0.UPF: wavefunction(s)  5S 5P renormalized

     Subspace diagonalization in iterative solution of the eigenvalue problem:
     a serial algorithm will be used

     Using Slab Decomposition

     bravais-lattice index     =            0
     lattice parameter (alat)  =       5.5500  a.u.
     unit-cell volume          =    1601.4729 (a.u.)^3
     number of atoms/cell      =            6
     number of atomic types    =            3
     number of electrons       =        95.00
     number of Kohn-Sham states=           58
     kinetic-energy cutoff     =      70.0000  Ry
     charge density cutoff     =     700.0000  Ry
     scf convergence threshold =      1.0E-12
     mixing beta               =       0.7000
     number of iterations used =            8  plain     mixing
     Exchange-correlation= PBESOL
                           (   1   4  10   8   0   0   0)

     celldm(1)=   5.550000  celldm(2)=   0.000000  celldm(3)=   0.000000
     celldm(4)=   0.000000  celldm(5)=   0.000000  celldm(6)=   0.000000

     crystal axes: (cart. coord. in units of alat)
               a(1) = (   1.040049  -0.000001   0.000000 )
               a(2) = (  -0.520026   0.900714   0.000000 )
               a(3) = (   0.000000   0.000000  10.000000 )

     reciprocal axes: (cart. coord. in units 2 pi/alat)
               b(1) = (  0.961493  0.555116  0.000000 )
               b(2) = (  0.000001  1.110231  0.000000 )
               b(3) = (  0.000000  0.000000  0.100000 )

     PseudoPot. # 1 for Ta read from file:
     /shared/home/as3359/pseudo/Ta.pbesol-spfn-rrkjus_psl.1.0.0.UPF
     MD5 check sum: f099565ffaca9b150a52e9412a28e20b
     Pseudo is Ultrasoft + core correction, Zval = 27.0
     Generated using &quot;atomic&quot; code by A. Dal Corso  v.6.3
     Using radial grid of 1273 points,  8 beta functions with:
                l(1) =   0
                l(2) =   0
                l(3) =   1
                l(4) =   1
                l(5) =   2
                l(6) =   2
                l(7) =   3
                l(8) =   3
     Q(r) pseudized with 0 coefficients

     PseudoPot. # 2 for C  read from file:
     /shared/home/as3359/pseudo/C.pbesol-n-rrkjus_psl.1.0.0.UPF
     MD5 check sum: 05995be603a8a7c99da3dc4413f31573
     Pseudo is Ultrasoft + core correction, Zval =  4.0
     Generated using &quot;atomic&quot; code by A. Dal Corso  v.6.3MaX
     Using radial grid of 1073 points,  4 beta functions with:
                l(1) =   0
                l(2) =   0
                l(3) =   1
                l(4) =   1
     Q(r) pseudized with 0 coefficients

     PseudoPot. # 3 for O  read from file:
     /shared/home/as3359/pseudo/O.pbesol-n-rrkjus_psl.1.0.0.UPF
     MD5 check sum: dd9bad2534826f832ffc9296591fc5de
     Pseudo is Ultrasoft + core correction, Zval =  6.0
     Generated using &quot;atomic&quot; code by A. Dal Corso  v.6.3MaX
     Using radial grid of 1095 points,  4 beta functions with:
                l(1) =   0
                l(2) =   0
                l(3) =   1
                l(4) =   1
     Q(r) pseudized with 0 coefficients

     atomic species   valence    mass     pseudopotential
        Ta            27.00   180.94788     Ta( 1.00)
        C              4.00    12.01070     C ( 1.00)
        O              6.00    15.99940     O ( 1.00)

     No symmetry found

   Cartesian axes

     site n.     atom                  positions (alat units)
         1           Ta  tau(   1) = (   0.0000088   0.6004957   0.6856589  )
         2           C   tau(   2) = (   0.0000053   0.0000108   1.0955604  )
         3           Ta  tau(   3) = (   0.5200282   0.3002450   1.5454419  )
         4           C   tau(   4) = (  -0.0000001   0.6004764   1.9848084  )
         5           Ta  tau(   5) = (  -0.0000085  -0.0000192   2.4469301  )
         6           O   tau(   6) = (  -0.0000110   0.6004554   2.8325448  )

     number of k points=    74  Marzari-Vanderbilt smearing, width (Ry)=  0.0010
                       cart. coord. in units 2pi/alat
        k(    1) = (   0.0000000   0.0000000   0.0000000), wk =   0.0138889
        k(    2) = (   0.0000001   0.0925192   0.0000000), wk =   0.0277778
        k(    3) = (   0.0000002   0.1850385   0.0000000), wk =   0.0277778
        k(    4) = (   0.0000003   0.2775577   0.0000000), wk =   0.0277778
        k(    5) = (   0.0000003   0.3700770   0.0000000), wk =   0.0277778
        k(    6) = (   0.0000004   0.4625962   0.0000000), wk =   0.0277778
        k(    7) = (  -0.0000005  -0.5551155   0.0000000), wk =   0.0138889
        k(    8) = (   0.0801244   0.0462597   0.0000000), wk =   0.0277778
        k(    9) = (   0.0801245   0.1387789   0.0000000), wk =   0.0277778
        k(   10) = (   0.0801246   0.2312982   0.0000000), wk =   0.0277778
        k(   11) = (   0.0801247   0.3238174   0.0000000), wk =   0.0277778
        k(   12) = (   0.0801248   0.4163367   0.0000000), wk =   0.0277778
        k(   13) = (   0.0801249   0.5088559   0.0000000), wk =   0.0277778
        k(   14) = (   0.0801239  -0.5088558   0.0000000), wk =   0.0277778
        k(   15) = (   0.0801240  -0.4163365   0.0000000), wk =   0.0277778
        k(   16) = (   0.0801241  -0.3238173   0.0000000), wk =   0.0277778
        k(   17) = (   0.0801242  -0.2312980   0.0000000), wk =   0.0277778
        k(   18) = (   0.0801243  -0.1387788   0.0000000), wk =   0.0277778
        k(   19) = (   0.0801244  -0.0462595   0.0000000), wk =   0.0277778
        k(   20) = (   0.1602489   0.0925194   0.0000000), wk =   0.0277778
        k(   21) = (   0.1602490   0.1850386   0.0000000), wk =   0.0277778
        k(   22) = (   0.1602491   0.2775579   0.0000000), wk =   0.0277778
        k(   23) = (   0.1602491   0.3700771   0.0000000), wk =   0.0277778
        k(   24) = (   0.1602492   0.4625964   0.0000000), wk =   0.0277778
        k(   25) = (   0.1602493   0.5551156   0.0000000), wk =   0.0277778
        k(   26) = (   0.1602484  -0.4625961   0.0000000), wk =   0.0277778
        k(   27) = (   0.1602485  -0.3700768   0.0000000), wk =   0.0277778
        k(   28) = (   0.1602485  -0.2775576   0.0000000), wk =   0.0277778
        k(   29) = (   0.1602486  -0.1850383   0.0000000), wk =   0.0277778
        k(   30) = (   0.1602487  -0.0925191   0.0000000), wk =   0.0277778
        k(   31) = (   0.1602488   0.0000001   0.0000000), wk =   0.0277778
        k(   32) = (   0.2403733   0.1387791   0.0000000), wk =   0.0277778
        k(   33) = (   0.2403734   0.2312983   0.0000000), wk =   0.0277778
        k(   34) = (   0.2403735   0.3238176   0.0000000), wk =   0.0277778
        k(   35) = (   0.2403736   0.4163368   0.0000000), wk =   0.0277778
        k(   36) = (   0.2403737   0.5088561   0.0000000), wk =   0.0277778
        k(   37) = (   0.2403737   0.6013753   0.0000000), wk =   0.0277778
        k(   38) = (   0.2403728  -0.4163364   0.0000000), wk =   0.0277778
        k(   39) = (   0.2403729  -0.3238171   0.0000000), wk =   0.0277778
        k(   40) = (   0.2403730  -0.2312979   0.0000000), wk =   0.0277778
        k(   41) = (   0.2403731  -0.1387786   0.0000000), wk =   0.0277778
        k(   42) = (   0.2403731  -0.0462594   0.0000000), wk =   0.0277778
        k(   43) = (   0.2403732   0.0462598   0.0000000), wk =   0.0277778
        k(   44) = (   0.3204978   0.1850388   0.0000000), wk =   0.0277778
        k(   45) = (   0.3204978   0.2775580   0.0000000), wk =   0.0277778
        k(   46) = (   0.3204979   0.3700773   0.0000000), wk =   0.0277778
        k(   47) = (   0.3204980   0.4625965   0.0000000), wk =   0.0277778
        k(   48) = (   0.3204981   0.5551158   0.0000000), wk =   0.0277778
        k(   49) = (   0.3204982   0.6476350   0.0000000), wk =   0.0277778
        k(   50) = (   0.3204972  -0.3700767   0.0000000), wk =   0.0277778
        k(   51) = (   0.3204973  -0.2775574   0.0000000), wk =   0.0277778
        k(   52) = (   0.3204974  -0.1850382   0.0000000), wk =   0.0277778
        k(   53) = (   0.3204975  -0.0925190   0.0000000), wk =   0.0277778
        k(   54) = (   0.3204976   0.0000003   0.0000000), wk =   0.0277778
        k(   55) = (   0.3204977   0.0925195   0.0000000), wk =   0.0277778
        k(   56) = (   0.4006222   0.2312985   0.0000000), wk =   0.0277778
        k(   57) = (   0.4006223   0.3238177   0.0000000), wk =   0.0277778
        k(   58) = (   0.4006224   0.4163370   0.0000000), wk =   0.0277778
        k(   59) = (   0.4006225   0.5088562   0.0000000), wk =   0.0277778
        k(   60) = (   0.4006225   0.6013755   0.0000000), wk =   0.0277778
        k(   61) = (   0.4006226   0.6938947   0.0000000), wk =   0.0277778
        k(   62) = (   0.4006217  -0.3238170   0.0000000), wk =   0.0277778
        k(   63) = (   0.4006218  -0.2312977   0.0000000), wk =   0.0277778
        k(   64) = (   0.4006219  -0.1387785   0.0000000), wk =   0.0277778
        k(   65) = (   0.4006219  -0.0462593   0.0000000), wk =   0.0277778
        k(   66) = (   0.4006220   0.0462600   0.0000000), wk =   0.0277778
        k(   67) = (   0.4006221   0.1387792   0.0000000), wk =   0.0277778
        k(   68) = (  -0.4807466  -0.2775582   0.0000000), wk =   0.0138889
        k(   69) = (  -0.4807466  -0.1850389   0.0000000), wk =   0.0277778
        k(   70) = (  -0.4807465  -0.0925197   0.0000000), wk =   0.0277778
        k(   71) = (  -0.4807464  -0.0000004   0.0000000), wk =   0.0277778
        k(   72) = (  -0.4807463   0.0925188   0.0000000), wk =   0.0277778
        k(   73) = (  -0.4807462   0.1850381   0.0000000), wk =   0.0277778
        k(   74) = (  -0.4807472  -0.8326737   0.0000000), wk =   0.0138889

     Initial potential from superposition of free atoms

     starting charge   94.99760, renormalised to   95.00000

     negative rho (up, down):  9.174E-05 0.000E+00
     Starting wfcs are   63 randomized atomic wfcs

     Self-consistent Calculation

     iteration #  1     ecut=    70.00 Ry     beta= 0.70
     Davidson diagonalization with overlap
     ethr =  1.00E-02,  avg # of iterations =  2.1
     Minimization algorithm failed to find Fermi energy: reverting to bisection
     Possible cause: smearing is larger than the electronic band-gap.

     negative rho (up, down):  4.410E-08 0.000E+00

     total energy              =   -2096.54730077 Ry
     estimated scf accuracy    <       3.18443857 Ry

     iteration #  2     ecut=    70.00 Ry     beta= 0.70
     Davidson diagonalization with overlap
     ethr =  3.35E-03,  avg # of iterations =  9.1
     Minimization algorithm failed to find Fermi energy: reverting to bisection
     Possible cause: smearing is larger than the electronic band-gap.

[...]

     iteration #  3     ecut=    70.00 Ry     beta= 0.70
     Davidson diagonalization with overlap
     ethr =  3.35E-03,  avg # of iterations = 10.6

[...]

     total energy              =   -2098.72963390 Ry
     estimated scf accuracy    <          5.9E-12 Ry

     iteration # 27     ecut=    70.00 Ry     beta= 0.70
     Davidson diagonalization with overlap
     ethr =  1.00E-13,  avg # of iterations =  1.0

[...]

     End of self-consistent calculation

          k = 0.0000 0.0000 0.0000 ( 15945 PWs)   bands (ev):

   -66.3835 -66.2528 -65.8445 -33.2333 -32.8362 -32.6108 -32.6108 -32.4645
   -32.4383 -32.4382 -31.9679 -31.9679 -18.0229 -18.0021 -17.9848 -17.9777
   -17.9777 -17.9597 -17.9596 -17.9308 -17.8685 -17.8593 -17.8593 -17.8444
   -17.8444 -17.7991 -17.5352 -17.4924 -17.4924 -17.4750 -17.4750 -17.4635
   -17.4005 -16.7466 -11.7208  -9.4832  -5.8161  -3.5264  -2.7966  -2.7965
    -2.2529  -2.2529  -0.9377  -0.2119  -0.2118   1.4108   2.0610   2.0610
     2.1729   3.4685   3.4688   4.0673   4.4600   4.4602   5.3798   6.3326
     6.3327   6.3372

[...]

          k =-0.0000-0.5551 0.0000 ( 15834 PWs)   bands (ev):

[...]

          k = 0.4006 0.1388 0.0000 ( 15822 PWs)   bands (ev):

[...]

          k =-0.4807-0.8327 0.0000 ( 15834 PWs)   bands (ev):

   -66.3352 -66.2061 -65.7998 -33.3746 -33.2323 -32.9631 -32.7893 -32.7244
   -32.6049 -32.6002 -32.4248 -32.1243 -17.9928 -17.9815 -17.9799 -17.9615
   -17.9595 -17.9544 -17.9524 -17.9370 -17.8678 -17.8569 -17.8486 -17.8389
   -17.8331 -17.8266 -17.5175 -17.5144 -17.4997 -17.4767 -17.4569 -17.4379
   -17.4226 -16.2977  -9.9644  -8.5994  -5.7826  -4.0954  -3.3368  -2.8457
    -2.7937  -2.5541  -2.0864  -1.9588  -0.2521   0.6222   2.0408   2.4645
     4.2372   4.7589   5.4914   5.9844   6.4135   6.6492   6.8818   7.0880
     7.3938   8.2338

     the Fermi energy is     2.1657 ev

!    total energy              =   -2098.72963390 Ry
     estimated scf accuracy    <          2.8E-13 Ry
     smearing contrib. (-TS)   =      -0.00004763 Ry
     internal energy E=F+TS    =   -2098.72958628 Ry

     The total energy is F=E-TS. E is the sum of the following terms:
     one-electron contribution =  -21206.01954312 Ry
     hartree contribution      =   10655.95681775 Ry
     xc contribution           =    -218.04734744 Ry
     ewald contribution        =    8669.38048653 Ry

     convergence has been achieved in  27 iterations

     negative rho (up, down):  1.006E-04 0.000E+00

     Forces acting on atoms (cartesian axes, Ry/au):

     atom    1 type  1   force =    -0.00000311   -0.00000651    0.00018420
     atom    2 type  2   force =     0.00000108    0.00000274   -0.00028585
     atom    3 type  1   force =    -0.00000038   -0.00000062    0.00064908
     atom    4 type  2   force =    -0.00000203   -0.00000452   -0.00047043
     atom    5 type  1   force =     0.00000007   -0.00000019   -0.00031339
     atom    6 type  3   force =     0.00000437    0.00000910    0.00023638

     Total force =     0.000955     Total SCF correction =     0.000007

     Computing stress (Cartesian axis) and pressure

     negative rho (up, down):  1.006E-04 0.000E+00
          total   stress  (Ry/bohr**3)                   (kbar)     P=       -0.16
   0.00000266   0.00000001   0.00000002            0.39        0.00        0.00
   0.00000001   0.00000262   0.00000005            0.00        0.39        0.01
   0.00000002   0.00000005  -0.00000856            0.00        0.01       -1.26

     Writing output data file /scratch/as3359/Ta3C2O_loop/Ta.save/

     General routines

     Parallel routines

   This run was terminated on:   1:22:24  25Mar2022

   JOB DONE.