     Program PWSCF v.6.8 starts on  7Apr2022 at 12: 8:14

     R & G space division:  proc/nbgrp/npool/nimage =       2

     Reading input from MoS2.scf.8.in
Warning: card  &CELL ignored
Warning: card     CELL_DYNAMICS='BFGS' ignored
Warning: card  / ignored

     Current dimensions of program PWSCF are:
     Max number of different atomic species (ntypx) = 10
     Max number of k-points (npk) =  40000
     Max angular momentum in pseudopotentials (lmaxx) =  4
     file Mo.pbesol-spn-kjpaw_psl.1.0.0.UPF: wavefunction(s)  4S 4D renormalized
     file S.pbesol-nl-kjpaw_psl.1.0.0.UPF: wavefunction(s)  3S renormalized

     Subspace diagonalization in iterative solution of the eigenvalue problem:
     a serial algorithm will be used

     Using Slab Decomposition

     bravais-lattice index     =            0
     lattice parameter (alat)  =       6.0720  a.u.
     unit-cell volume          =     924.7995 (a.u.)^3
     number of atoms/cell      =            3
     number of atomic types    =            2
     number of electrons       =        26.00
     number of Kohn-Sham states=           13
     kinetic-energy cutoff     =     200.0000  Ry
     charge density cutoff     =    1000.0000  Ry
     scf convergence threshold =      1.0E-12
     mixing beta               =       0.7000
     number of iterations used =            8  plain     mixing
     Exchange-correlation= SLA  PW   PSX  PSC
                           (   1   4  10   8   0   0   0)

     celldm(1)=   6.072000  celldm(2)=   0.000000  celldm(3)=   0.000000
     celldm(4)=   0.000000  celldm(5)=   0.000000  celldm(6)=   0.000000

     crystal axes: (cart. coord. in units of alat)
               a(1) = (   0.976384  -0.000017   0.000000 )
               a(2) = (  -0.487931   0.846187   0.000000 )
               a(3) = (   0.000000   0.000000   5.000000 )

     reciprocal axes: (cart. coord. in units 2 pi/alat)
               b(1) = (  1.024198  0.590577  0.000000 )
               b(2) = (  0.000021  1.181785  0.000000 )
               b(3) = (  0.000000  0.000000  0.200000 )

     PseudoPot. # 1 for Mo read from file:
     /shared/home/as3359/pseudo/Mo.pbesol-spn-kjpaw_psl.1.0.0.UPF
     MD5 check sum: de57925cfc675213e43241dcc441eda8
     Pseudo is Projector augmented-wave + core cor, Zval = 14.0
     Generated using &quot;atomic&quot; code by A. Dal Corso  v.6.3
     Shape of augmentation charge: PSQ
     Using radial grid of 1229 points,  6 beta functions with:
                l(1) =   0
                l(2) =   0
                l(3) =   1
                l(4) =   1
                l(5) =   2
                l(6) =   2
     Q(r) pseudized with 0 coefficients

     PseudoPot. # 2 for S  read from file:
     /shared/home/as3359/pseudo/S.pbesol-nl-kjpaw_psl.1.0.0.UPF
     MD5 check sum: bf3db50ec3f960682bbc396f1aadd1dd
     Pseudo is Projector augmented-wave + core cor, Zval =  6.0
     Generated using &quot;atomic&quot; code by A. Dal Corso  v.6.3
     Shape of augmentation charge: PSQ
     Using radial grid of 1151 points,  4 beta functions with:
                l(1) =   0
                l(2) =   0
                l(3) =   1
                l(4) =   1
     Q(r) pseudized with 0 coefficients

     atomic species   valence    mass     pseudopotential
        Mo            14.00    95.94000     Mo( 1.00)
        S              6.00    32.06500     S ( 1.00)

     No symmetry found

   Cartesian axes

     site n.     atom                  positions (alat units)
         1           Mo  tau(   1) = (   0.0000000   0.0000000   1.6880765  )
         2           S   tau(   2) = (   0.4883508   0.2821722   2.1737857  )
         3           S   tau(   3) = (   0.4883508   0.2821722   1.2023670  )

     number of k points=    34
                       cart. coord. in units 2pi/alat
        k(    1) = (   0.0000000   0.0000000   0.0000000), wk =   0.0312500
        k(    2) = (   0.0000026   0.1477231   0.0000000), wk =   0.0625000
        k(    3) = (   0.0000052   0.2954461   0.0000000), wk =   0.0625000
        k(    4) = (   0.0000078   0.4431692   0.0000000), wk =   0.0625000
        k(    5) = (  -0.0000105  -0.5908923   0.0000000), wk =   0.0312500
        k(    6) = (   0.1280247   0.0738221   0.0000000), wk =   0.0625000
        k(    7) = (   0.1280273   0.2215451   0.0000000), wk =   0.0625000
        k(    8) = (   0.1280299   0.3692682   0.0000000), wk =   0.0625000
        k(    9) = (   0.1280326   0.5169913   0.0000000), wk =   0.0625000
        k(   10) = (   0.1280143  -0.5170702   0.0000000), wk =   0.0625000
        k(   11) = (   0.1280169  -0.3693471   0.0000000), wk =   0.0625000
        k(   12) = (   0.1280195  -0.2216240   0.0000000), wk =   0.0625000
        k(   13) = (   0.1280221  -0.0739010   0.0000000), wk =   0.0625000
        k(   14) = (   0.2560494   0.1476442   0.0000000), wk =   0.0625000
        k(   15) = (   0.2560521   0.2953672   0.0000000), wk =   0.0625000
        k(   16) = (   0.2560547   0.4430903   0.0000000), wk =   0.0625000
        k(   17) = (   0.2560573   0.5908134   0.0000000), wk =   0.0625000
        k(   18) = (   0.2560390  -0.4432481   0.0000000), wk =   0.0625000
        k(   19) = (   0.2560416  -0.2955250   0.0000000), wk =   0.0625000
        k(   20) = (   0.2560442  -0.1478020   0.0000000), wk =   0.0625000
        k(   21) = (   0.2560468  -0.0000789   0.0000000), wk =   0.0625000
        k(   22) = (   0.3840742   0.2214662   0.0000000), wk =   0.0625000
        k(   23) = (   0.3840768   0.3691893   0.0000000), wk =   0.0625000
        k(   24) = (   0.3840794   0.5169124   0.0000000), wk =   0.0625000
        k(   25) = (   0.3840820   0.6646354   0.0000000), wk =   0.0625000
        k(   26) = (   0.3840637  -0.3694260   0.0000000), wk =   0.0625000
        k(   27) = (   0.3840663  -0.2217030   0.0000000), wk =   0.0625000
        k(   28) = (   0.3840689  -0.0739799   0.0000000), wk =   0.0625000
        k(   29) = (   0.3840716   0.0737432   0.0000000), wk =   0.0625000
        k(   30) = (  -0.5120989  -0.2952883   0.0000000), wk =   0.0312500
        k(   31) = (  -0.5120963  -0.1475653   0.0000000), wk =   0.0625000
        k(   32) = (  -0.5120937   0.0001578   0.0000000), wk =   0.0625000
        k(   33) = (  -0.5120910   0.1478809   0.0000000), wk =   0.0625000
        k(   34) = (  -0.5121093  -0.8861806   0.0000000), wk =   0.0312500

     Atomic positions and unit cell read from directory:
     /scratch/as3359/Ta2C_ct_kpts/MoS2.save/
     Message from routine qexsd_readschema :
     xml data file /scratch/as3359/Ta2C_ct_kpts/MoS2.save/data-file-schema.xml not fo
     Nothing found: using input atomic positions and unit cell

     Cannot read rho : file not found

     Initial potential from superposition of free atoms

     starting charge   25.99914, renormalised to   26.00000

     negative rho (up, down):  7.764E-05 0.000E+00
     Message from routine qexsd_readschema :
     xml data file /scratch/as3359/Ta2C_ct_kpts/MoS2.save/data-file-schema.xml not fo
     Cannot read wfcs: file not found
     Starting wfcs are   18 randomized atomic wfcs
     Checking if some PAW data can be deallocated...

     Self-consistent Calculation

     iteration #  1     ecut=   200.00 Ry     beta= 0.70
     Davidson diagonalization with overlap
     ethr =  1.00E-05,  avg # of iterations = 10.4

     negative rho (up, down):  2.442E-05 0.000E+00

     total energy              =    -489.68928185 Ry
     estimated scf accuracy    <       0.15093404 Ry

[...]

     total energy              =    -489.75804287 Ry
     estimated scf accuracy    <          2.9E-12 Ry

     iteration # 27     ecut=   200.00 Ry     beta= 0.70
     Davidson diagonalization with overlap
     ethr =  1.00E-13,  avg # of iterations =  1.4

[...]

     End of self-consistent calculation

          k = 0.0000 0.0000 0.0000 ( 44251 PWs)   bands (ev):

   -60.3495 -34.5537 -34.2859 -34.2846 -13.8552 -12.5036  -5.4144  -2.2347
    -2.2260  -1.4938  -1.0737  -1.0672   0.2789

[...]

          k =-0.0000-0.5909 0.0000 ( 44138 PWs)   bands (ev):

[...]

          k = 0.3841 0.0737 0.0000 ( 44183 PWs)   bands (ev):

[...]

          k =-0.5121-0.8862 0.0000 ( 44154 PWs)   bands (ev):

   -60.3036 -34.7200 -34.4641 -34.3862 -11.8187 -11.6897  -5.5857  -4.5859
    -3.8020  -2.8223  -1.5666  -0.5007  -0.2905

     highest occupied level (ev):     0.2789

!    total energy              =    -489.75804287 Ry

     total all-electron energy =     -9688.215888 Ry
     estimated scf accuracy    <          2.9E-15 Ry

     The total energy is the sum of the following terms:
     one-electron contribution =    -813.90636253 Ry
     hartree contribution      =     410.77406025 Ry
     xc contribution           =     -29.52474086 Ry
     ewald contribution        =     255.78841210 Ry
     one-center paw contrib.   =    -312.88941183 Ry

     convergence has been achieved in  27 iterations

     negative rho (up, down):  3.621E-06 0.000E+00

     Forces acting on atoms (cartesian axes, Ry/au):

     atom    1 type  1   force =     0.00026878    0.00012875   -0.00000059
     atom    2 type  2   force =    -0.00013439   -0.00006437   -0.00031702
     atom    3 type  2   force =    -0.00013439   -0.00006438    0.00031761

     Total force =     0.000578     Total SCF correction =     0.000000

     Computing stress (Cartesian axis) and pressure

     negative rho (up, down):  3.621E-06 0.000E+00
          total   stress  (Ry/bohr**3)                   (kbar)     P=        0.70
   0.00000972  -0.00000085   0.00000000            1.43       -0.13        0.00
  -0.00000085   0.00000658  -0.00000000           -0.13        0.97       -0.00
   0.00000000  -0.00000000  -0.00000207            0.00       -0.00       -0.31

     Writing output data file /scratch/as3359/Ta2C_ct_kpts/MoS2.save/

     General routines

     Parallel routines

   This run was terminated on:  12:13:51   7Apr2022

   JOB DONE.