     Program PWSCF v.6.8 starts on  6Apr2022 at 13: 2:37

     R & G space division:  proc/nbgrp/npool/nimage =       2

     Waiting for input...
     Reading input from standard input

     Current dimensions of program PWSCF are:
     Max number of different atomic species (ntypx) = 10
     Max number of k-points (npk) =  40000
     Max angular momentum in pseudopotentials (lmaxx) =  4
     file Ta.pbesol-spfn-rrkjus_psl.1.0.0.UPF: wavefunction(s)  5S 5P renormalized

     Subspace diagonalization in iterative solution of the eigenvalue problem:
     a serial algorithm will be used

     Using Slab Decomposition

     bravais-lattice index     =            0
     lattice parameter (alat)  =       5.5500  a.u.
     unit-cell volume          =    1590.9767 (a.u.)^3
     number of atoms/cell      =            3
     number of atomic types    =            2
     number of electrons       =        58.00
     number of Kohn-Sham states=           35
     kinetic-energy cutoff     =      60.0000  Ry
     charge density cutoff     =     300.0000  Ry
     scf convergence threshold =      1.0E-12
     mixing beta               =       0.7000
     number of iterations used =            8  plain     mixing
     Exchange-correlation= PBESOL
                           (   1   4  10   8   0   0   0)

     celldm(1)=   5.550000  celldm(2)=   0.000000  celldm(3)=   0.000000
     celldm(4)=   0.000000  celldm(5)=   0.000000  celldm(6)=   0.000000

     crystal axes: (cart. coord. in units of alat)
               a(1) = (   1.034755   0.000332   0.000000 )
               a(2) = (  -0.516415   0.899223   0.000000 )
               a(3) = (   0.000000   0.000000  10.000000 )

     reciprocal axes: (cart. coord. in units 2 pi/alat)
               b(1) = (  0.966234  0.554899  0.000000 )
               b(2) = ( -0.000357  1.111867  0.000000 )
               b(3) = (  0.000000  0.000000  0.100000 )

     PseudoPot. # 1 for Ta read from file:
     /shared/home/as3359/pseudo/Ta.pbesol-spfn-rrkjus_psl.1.0.0.UPF
     MD5 check sum: f099565ffaca9b150a52e9412a28e20b
     Pseudo is Ultrasoft + core correction, Zval = 27.0
     Generated using &quot;atomic&quot; code by A. Dal Corso  v.6.3
     Using radial grid of 1273 points,  8 beta functions with:
                l(1) =   0
                l(2) =   0
                l(3) =   1
                l(4) =   1
                l(5) =   2
                l(6) =   2
                l(7) =   3
                l(8) =   3
     Q(r) pseudized with 0 coefficients

     PseudoPot. # 2 for C  read from file:
     /shared/home/as3359/pseudo/C.pbesol-n-rrkjus_psl.1.0.0.UPF
     MD5 check sum: 05995be603a8a7c99da3dc4413f31573
     Pseudo is Ultrasoft + core correction, Zval =  4.0
     Generated using &quot;atomic&quot; code by A. Dal Corso  v.6.3MaX
     Using radial grid of 1073 points,  4 beta functions with:
                l(1) =   0
                l(2) =   0
                l(3) =   1
                l(4) =   1
     Q(r) pseudized with 0 coefficients

     atomic species   valence    mass     pseudopotential
        Ta            27.00   180.94788     Ta( 1.00)
        C              4.00    12.01070     C ( 1.00)

     No symmetry found

   Cartesian axes

     site n.     atom                  positions (alat units)
         1           C   tau(   1) = (   0.0000000   0.0000000   0.0000000  )
         2           Ta  tau(   2) = (   0.5175488   0.3007354  -0.4118949  )
         3           Ta  tau(   3) = (   0.0008549   0.5988783   0.4118273  )

     number of k points=    74  Marzari-Vanderbilt smearing, width (Ry)=  0.0010
                       cart. coord. in units 2pi/alat
        k(    1) = (   0.0000000   0.0000000   0.0000000), wk =   0.0138889
        k(    2) = (  -0.0000297   0.0926556   0.0000000), wk =   0.0277778
        k(    3) = (  -0.0000594   0.1853111   0.0000000), wk =   0.0277778
        k(    4) = (  -0.0000892   0.2779667   0.0000000), wk =   0.0277778
        k(    5) = (  -0.0001189   0.3706222   0.0000000), wk =   0.0277778
        k(    6) = (  -0.0001486   0.4632778   0.0000000), wk =   0.0277778
        k(    7) = (   0.0001783  -0.5559333   0.0000000), wk =   0.0138889
        k(    8) = (   0.0805195   0.0462416   0.0000000), wk =   0.0277778
        k(    9) = (   0.0804898   0.1388972   0.0000000), wk =   0.0277778
        k(   10) = (   0.0804601   0.2315527   0.0000000), wk =   0.0277778
        k(   11) = (   0.0804304   0.3242083   0.0000000), wk =   0.0277778
        k(   12) = (   0.0804007   0.4168638   0.0000000), wk =   0.0277778
        k(   13) = (   0.0803709   0.5095194   0.0000000), wk =   0.0277778
        k(   14) = (   0.0806978  -0.5096917   0.0000000), wk =   0.0277778
        k(   15) = (   0.0806681  -0.4170361   0.0000000), wk =   0.0277778
        k(   16) = (   0.0806384  -0.3243806   0.0000000), wk =   0.0277778
        k(   17) = (   0.0806087  -0.2317250   0.0000000), wk =   0.0277778
        k(   18) = (   0.0805790  -0.1390695   0.0000000), wk =   0.0277778
        k(   19) = (   0.0805492  -0.0464139   0.0000000), wk =   0.0277778
        k(   20) = (   0.1610391   0.0924832   0.0000000), wk =   0.0277778
        k(   21) = (   0.1610093   0.1851388   0.0000000), wk =   0.0277778
        k(   22) = (   0.1609796   0.2777943   0.0000000), wk =   0.0277778
        k(   23) = (   0.1609499   0.3704499   0.0000000), wk =   0.0277778
        k(   24) = (   0.1609202   0.4631054   0.0000000), wk =   0.0277778
        k(   25) = (   0.1608905   0.5557610   0.0000000), wk =   0.0277778
        k(   26) = (   0.1612174  -0.4634501   0.0000000), wk =   0.0277778
        k(   27) = (   0.1611876  -0.3707945   0.0000000), wk =   0.0277778
        k(   28) = (   0.1611579  -0.2781390   0.0000000), wk =   0.0277778
        k(   29) = (   0.1611282  -0.1854834   0.0000000), wk =   0.0277778
        k(   30) = (   0.1610985  -0.0928279   0.0000000), wk =   0.0277778
        k(   31) = (   0.1610688  -0.0001723   0.0000000), wk =   0.0277778
        k(   32) = (   0.2415586   0.1387248   0.0000000), wk =   0.0277778
        k(   33) = (   0.2415289   0.2313804   0.0000000), wk =   0.0277778
        k(   34) = (   0.2414991   0.3240359   0.0000000), wk =   0.0277778
        k(   35) = (   0.2414694   0.4166915   0.0000000), wk =   0.0277778
        k(   36) = (   0.2414397   0.5093470   0.0000000), wk =   0.0277778
        k(   37) = (   0.2414100   0.6020026   0.0000000), wk =   0.0277778
        k(   38) = (   0.2417369  -0.4172085   0.0000000), wk =   0.0277778
        k(   39) = (   0.2417072  -0.3245529   0.0000000), wk =   0.0277778
        k(   40) = (   0.2416775  -0.2318974   0.0000000), wk =   0.0277778
        k(   41) = (   0.2416477  -0.1392418   0.0000000), wk =   0.0277778
        k(   42) = (   0.2416180  -0.0465863   0.0000000), wk =   0.0277778
        k(   43) = (   0.2415883   0.0460693   0.0000000), wk =   0.0277778
        k(   44) = (   0.3220781   0.1849664   0.0000000), wk =   0.0277778
        k(   45) = (   0.3220484   0.2776220   0.0000000), wk =   0.0277778
        k(   46) = (   0.3220187   0.3702775   0.0000000), wk =   0.0277778
        k(   47) = (   0.3219889   0.4629331   0.0000000), wk =   0.0277778
        k(   48) = (   0.3219592   0.5555886   0.0000000), wk =   0.0277778
        k(   49) = (   0.3219295   0.6482442   0.0000000), wk =   0.0277778
        k(   50) = (   0.3222564  -0.3709669   0.0000000), wk =   0.0277778
        k(   51) = (   0.3222267  -0.2783113   0.0000000), wk =   0.0277778
        k(   52) = (   0.3221970  -0.1856558   0.0000000), wk =   0.0277778
        k(   53) = (   0.3221673  -0.0930002   0.0000000), wk =   0.0277778
        k(   54) = (   0.3221375  -0.0003447   0.0000000), wk =   0.0277778
        k(   55) = (   0.3221078   0.0923109   0.0000000), wk =   0.0277778
        k(   56) = (   0.4025976   0.2312080   0.0000000), wk =   0.0277778
        k(   57) = (   0.4025679   0.3238636   0.0000000), wk =   0.0277778
        k(   58) = (   0.4025382   0.4165191   0.0000000), wk =   0.0277778
        k(   59) = (   0.4025085   0.5091747   0.0000000), wk =   0.0277778
        k(   60) = (   0.4024788   0.6018302   0.0000000), wk =   0.0277778
        k(   61) = (   0.4024490   0.6944858   0.0000000), wk =   0.0277778
        k(   62) = (   0.4027759  -0.3247253   0.0000000), wk =   0.0277778
        k(   63) = (   0.4027462  -0.2320697   0.0000000), wk =   0.0277778
        k(   64) = (   0.4027165  -0.1394142   0.0000000), wk =   0.0277778
        k(   65) = (   0.4026868  -0.0467586   0.0000000), wk =   0.0277778
        k(   66) = (   0.4026571   0.0458969   0.0000000), wk =   0.0277778
        k(   67) = (   0.4026274   0.1385525   0.0000000), wk =   0.0277778
        k(   68) = (  -0.4831172  -0.2774496   0.0000000), wk =   0.0138889
        k(   69) = (  -0.4831469  -0.1847941   0.0000000), wk =   0.0277778
        k(   70) = (  -0.4831766  -0.0921385   0.0000000), wk =   0.0277778
        k(   71) = (  -0.4832063   0.0005170   0.0000000), wk =   0.0277778
        k(   72) = (  -0.4832360   0.0931726   0.0000000), wk =   0.0277778
        k(   73) = (  -0.4832658   0.1858281   0.0000000), wk =   0.0277778
        k(   74) = (  -0.4829388  -0.8333830   0.0000000), wk =   0.0138889

     Check: negative core charge=   -0.000001

     Initial potential from superposition of free atoms

     starting charge   57.99842, renormalised to   58.00000

     negative rho (up, down):  8.387E-04 0.000E+00
     Starting wfcs are   38 randomized atomic wfcs

     Self-consistent Calculation

     iteration #  1     ecut=    60.00 Ry     beta= 0.70
     Davidson diagonalization with overlap
     ethr =  1.00E-02,  avg # of iterations =  2.2

     negative rho (up, down):  7.530E-04 0.000E+00

     total energy              =   -1372.44249284 Ry
     estimated scf accuracy    <       1.30524669 Ry

[...]

     iteration # 11     ecut=    60.00 Ry     beta= 0.70
     Davidson diagonalization with overlap
     ethr =  3.08E-06,  avg # of iterations =  4.0

[...]

     iteration # 12     ecut=    60.00 Ry     beta= 0.70
     Davidson diagonalization with overlap
     ethr =  1.11E-06,  avg # of iterations =  1.6
     Minimization algorithm failed to find Fermi energy: reverting to bisection
     Possible cause: smearing is larger than the electronic band-gap.

[...]

     total energy              =   -1373.24754313 Ry
     estimated scf accuracy    <          2.2E-12 Ry

     iteration # 23     ecut=    60.00 Ry     beta= 0.70
     Davidson diagonalization with overlap
     ethr =  1.00E-13,  avg # of iterations =  1.0
     Minimization algorithm failed to find Fermi energy: reverting to bisection
     Possible cause: smearing is larger than the electronic band-gap.

[...]

     End of self-consistent calculation

          k = 0.0000 0.0000 0.0000 ( 12419 PWs)   bands (ev):

   -68.3289 -68.2808 -35.3543 -34.7493 -34.4462 -34.4437 -34.3806 -34.3762
   -20.0444 -20.0311 -20.0072 -20.0059 -20.0015 -20.0012 -19.9746 -19.9738
   -19.9681 -19.9680 -19.9565 -19.9516 -19.8910 -19.8892 -13.3075  -7.7354
    -4.4404  -4.3931  -2.0053  -1.0111  -0.8064  -0.2809  -0.2115   1.7027
     1.7139   2.7937   2.8492

          k =-0.0000 0.0927 0.0000 ( 12387 PWs)   bands (ev):

[...]

          k = 0.4026 0.1386 0.0000 ( 12493 PWs)   bands (ev):

[...]

          k =-0.4829-0.8334 0.0000 ( 12512 PWs)   bands (ev):

   -68.2652 -68.2496 -35.2585 -35.2045 -34.8832 -34.7642 -34.6604 -34.4994
   -20.0331 -20.0203 -20.0168 -20.0122 -20.0092 -19.9943 -19.9873 -19.9721
   -19.9660 -19.9551 -19.9305 -19.9268 -19.9134 -19.9121 -11.8857  -7.2953
    -5.0124  -4.4885  -3.6760  -0.0194   0.0045   1.8684   2.2335   2.9381
     2.9735   3.8760   4.9576

     the Fermi energy is    -0.2275 ev

!    total energy              =   -1373.24754313 Ry
     estimated scf accuracy    <          8.7E-14 Ry
     smearing contrib. (-TS)   =       0.00001440 Ry
     internal energy E=F+TS    =   -1373.24755753 Ry

     The total energy is F=E-TS. E is the sum of the following terms:
     one-electron contribution =  -10883.55324019 Ry
     hartree contribution      =    5469.94743995 Ry
     xc contribution           =    -138.76806780 Ry
     ewald contribution        =    4179.12631051 Ry

     convergence has been achieved in  23 iterations

     negative rho (up, down):  8.290E-04 0.000E+00

     Forces acting on atoms (cartesian axes, Ry/au):

     atom    1 type  2   force =     0.00007373    0.00006797   -0.00006190
     atom    2 type  1   force =    -0.00018368    0.00005336   -0.00007906
     atom    3 type  1   force =     0.00010995   -0.00012133    0.00014096

     Total force =     0.000322     Total SCF correction =     0.000003

     Computing stress (Cartesian axis) and pressure

     negative rho (up, down):  8.290E-04 0.000E+00
          total   stress  (Ry/bohr**3)                   (kbar)     P=       -0.88
   0.00000286   0.00000122   0.00000042            0.42        0.18        0.06
   0.00000122   0.00000347  -0.00000024            0.18        0.51       -0.04
   0.00000042  -0.00000024  -0.00002432            0.06       -0.04       -3.58

     Writing output data file /scratch/as3359/Ta2C_looping/Ta.save/

     General routines

     Parallel routines

   This run was terminated on:  13: 7:45   6Apr2022

   JOB DONE.