     Program PWSCF v.6.8 starts on 22Apr2022 at  8:48:34

     R & G space division:  proc/nbgrp/npool/nimage =       2

     Reading input from Ta2CH2.scf.in

     Current dimensions of program PWSCF are:
     Max number of different atomic species (ntypx) = 10
     Max number of k-points (npk) =  40000
     Max angular momentum in pseudopotentials (lmaxx) =  4
     file Ta.pbesol-spfn-rrkjus_psl.1.0.0.UPF: wavefunction(s)  5S 5P renormalized
     Message from routine setup:
     using ibrav=0 with symmetry is DISCOURAGED, use correct ibrav instead

     Subspace diagonalization in iterative solution of the eigenvalue problem:
     a serial algorithm will be used

     Using Slab Decomposition

     bravais-lattice index     =            0
     lattice parameter (alat)  =       5.5500  a.u.
     unit-cell volume          =    1637.0834 (a.u.)^3
     number of atoms/cell      =            5
     number of atomic types    =            3
     number of electrons       =        60.00
     number of Kohn-Sham states=           36
     kinetic-energy cutoff     =     150.0000  Ry
     charge density cutoff     =     800.0000  Ry
     scf convergence threshold =      1.0E-12
     mixing beta               =       0.7000
     number of iterations used =            8  plain     mixing
     Exchange-correlation= PBESOL
                           (   1   4  10   8   0   0   0)

     celldm(1)=   5.550000  celldm(2)=   0.000000  celldm(3)=   0.000000
     celldm(4)=   0.000000  celldm(5)=   0.000000  celldm(6)=   0.000000

     crystal axes: (cart. coord. in units of alat)
               a(1) = (   1.051552   0.000000   0.000000 )
               a(2) = (  -0.525776   0.910670   0.000000 )
               a(3) = (   0.000000   0.000000  10.000000 )

     reciprocal axes: (cart. coord. in units 2 pi/alat)
               b(1) = (  0.950976  0.549046  0.000000 )
               b(2) = (  0.000000  1.098092  0.000000 )
               b(3) = (  0.000000  0.000000  0.100000 )

     PseudoPot. # 1 for Ta read from file:
     /shared/home/as3359/pseudo/Ta.pbesol-spfn-rrkjus_psl.1.0.0.UPF
     MD5 check sum: f099565ffaca9b150a52e9412a28e20b
     Pseudo is Ultrasoft + core correction, Zval = 27.0
     Generated using &quot;atomic&quot; code by A. Dal Corso  v.6.3
     Using radial grid of 1273 points,  8 beta functions with:
                l(1) =   0
                l(2) =   0
                l(3) =   1
                l(4) =   1
                l(5) =   2
                l(6) =   2
                l(7) =   3
                l(8) =   3
     Q(r) pseudized with 0 coefficients

     PseudoPot. # 2 for C  read from file:
     /shared/home/as3359/pseudo/C.pbesol-n-rrkjus_psl.1.0.0.UPF
     MD5 check sum: 05995be603a8a7c99da3dc4413f31573
     Pseudo is Ultrasoft + core correction, Zval =  4.0
     Generated using &quot;atomic&quot; code by A. Dal Corso  v.6.3MaX
     Using radial grid of 1073 points,  4 beta functions with:
                l(1) =   0
                l(2) =   0
                l(3) =   1
                l(4) =   1
     Q(r) pseudized with 0 coefficients

     PseudoPot. # 3 for H  read from file:
     /shared/home/as3359/pseudo/H.pbesol-rrkjus_psl.0.1.UPF
     MD5 check sum: 1dbb1a5c48b1283557b8117eb856a7ca
     Pseudo is Ultrasoft, Zval =  1.0
     Generated using "atomic" code by A. Dal Corso  v.5.0.2 svn rev. 9415
     Using radial grid of  929 points,  2 beta functions with:
                l(1) =   0
                l(2) =   0
     Q(r) pseudized with 0 coefficients

     atomic species   valence    mass     pseudopotential
        Ta            27.00   180.94788     Ta( 1.00)
        C              4.00    12.01070     C ( 1.00)
        H              1.00     1.00000     H ( 1.00)

      6 Sym. Ops. (no inversion) found

   Cartesian axes

     site n.     atom                  positions (alat units)
         1           C   tau(   1) = (   0.0000000   0.0000000   0.0001856  )
         2           Ta  tau(   2) = (   0.5257758   0.3035568  -0.4220855  )
         3           Ta  tau(   3) = (   0.0000000   0.6071136   0.4234342  )
         4           H   tau(   4) = (   0.0000000   0.6071136   1.0328221  )
         5           H   tau(   5) = (   0.5257758   0.3035568  -1.0315700  )

     number of k points=    27  Marzari-Vanderbilt smearing, width (Ry)=  0.0010
                       cart. coord. in units 2pi/alat
        k(    1) = (   0.0000000   0.0000000   0.0000000), wk =   0.0088889
        k(    2) = (   0.0000000   0.0732061   0.0000000), wk =   0.0533333
        k(    3) = (   0.0000000   0.1464123   0.0000000), wk =   0.0533333
        k(    4) = (   0.0000000   0.2196184   0.0000000), wk =   0.0533333
        k(    5) = (   0.0000000   0.2928245   0.0000000), wk =   0.0533333
        k(    6) = (   0.0000000   0.3660307   0.0000000), wk =   0.0533333
        k(    7) = (   0.0000000   0.4392368   0.0000000), wk =   0.0533333
        k(    8) = (   0.0000000   0.5124430   0.0000000), wk =   0.0533333
        k(    9) = (   0.0633984   0.1098092   0.0000000), wk =   0.0533333
        k(   10) = (   0.0633984   0.1830153   0.0000000), wk =   0.1066667
        k(   11) = (   0.0633984   0.2562215   0.0000000), wk =   0.1066667
        k(   12) = (   0.0633984   0.3294276   0.0000000), wk =   0.1066667
        k(   13) = (   0.0633984   0.4026338   0.0000000), wk =   0.1066667
        k(   14) = (   0.0633984   0.4758399   0.0000000), wk =   0.1066667
        k(   15) = (   0.0633984   0.5490460   0.0000000), wk =   0.0533333
        k(   16) = (   0.1267967   0.2196184   0.0000000), wk =   0.0533333
        k(   17) = (   0.1267967   0.2928245   0.0000000), wk =   0.1066667
        k(   18) = (   0.1267967   0.3660307   0.0000000), wk =   0.1066667
        k(   19) = (   0.1267967   0.4392368   0.0000000), wk =   0.1066667
        k(   20) = (   0.1267967   0.5124430   0.0000000), wk =   0.1066667
        k(   21) = (   0.1901951   0.3294276   0.0000000), wk =   0.0533333
        k(   22) = (   0.1901951   0.4026338   0.0000000), wk =   0.1066667
        k(   23) = (   0.1901951   0.4758399   0.0000000), wk =   0.1066667
        k(   24) = (   0.1901951   0.5490460   0.0000000), wk =   0.0533333
        k(   25) = (   0.2535935   0.4392368   0.0000000), wk =   0.0533333
        k(   26) = (   0.2535935   0.5124430   0.0000000), wk =   0.1066667
        k(   27) = (   0.3169919   0.5490460   0.0000000), wk =   0.0177778

     Initial potential from superposition of free atoms

     starting charge   59.99840, renormalised to   60.00000

     negative rho (up, down):  4.818E-05 0.000E+00
     Starting wfcs are   40 randomized atomic wfcs

     Self-consistent Calculation

     iteration #  1     ecut=   150.00 Ry     beta= 0.70
     Davidson diagonalization with overlap
     ethr =  1.00E-02,  avg # of iterations =  2.2

     negative rho (up, down):  2.368E-06 0.000E+00

     total energy              =   -1375.12215342 Ry
     estimated scf accuracy    <       0.83012064 Ry

[...]

     total energy              =   -1375.52566934 Ry
     estimated scf accuracy    <          1.8E-12 Ry

     iteration # 20     ecut=   150.00 Ry     beta= 0.70
     Davidson diagonalization with overlap
     ethr =  1.00E-13,  avg # of iterations =  1.0

[...]

     End of self-consistent calculation

          k = 0.0000 0.0000 0.0000 ( 50893 PWs)   bands (ev):

   -69.7643 -69.7283 -36.4851 -36.0494 -36.0494 -35.9967 -35.9967 -35.9836
   -21.4327 -21.4261 -21.3994 -21.3994 -21.3872 -21.3872 -21.3728 -21.3704
   -21.3419 -21.3337 -21.3337 -21.3269 -21.3219 -21.3219 -14.7223  -9.1449
    -5.7070  -5.7070  -5.1548  -5.1448  -3.3968  -1.7975  -1.7975   0.1989
     0.1989   1.1214   1.1214   1.6767

[...]

          k = 0.3170 0.5490 0.0000 ( 50670 PWs)   bands (ev):

   -69.7029 -69.7012 -36.5630 -36.4892 -36.4889 -36.3875 -36.0643 -36.0632
   -21.4157 -21.4137 -21.4011 -21.3886 -21.3867 -21.3822 -21.3802 -21.3774
   -21.3541 -21.3433 -21.3413 -21.3321 -21.3166 -21.3145 -13.0252  -7.5534
    -7.5494  -6.0191  -2.9054  -2.9033  -2.5539  -2.3608  -2.3594  -1.1162
     1.3650   1.3771   3.4420   3.4428

     the Fermi energy is    -1.9768 ev

!    total energy              =   -1375.52566934 Ry
     estimated scf accuracy    <          2.7E-13 Ry
     smearing contrib. (-TS)   =       0.00000801 Ry
     internal energy E=F+TS    =   -1375.52567734 Ry

     The total energy is F=E-TS. E is the sum of the following terms:
     one-electron contribution =  -10966.79601333 Ry
     hartree contribution      =    5509.02666731 Ry
     xc contribution           =    -140.06863755 Ry
     ewald contribution        =    4222.31230623 Ry

     convergence has been achieved in  20 iterations

     negative rho (up, down):  8.724E-05 0.000E+00

     Forces acting on atoms (cartesian axes, Ry/au):

     atom    1 type  2   force =     0.00000000    0.00000000    0.00057994
     atom    2 type  1   force =     0.00000000    0.00000000   -0.00186495
     atom    3 type  1   force =     0.00000000    0.00000000    0.00120058
     atom    4 type  3   force =     0.00000000    0.00000000   -0.00039583
     atom    5 type  3   force =     0.00000000    0.00000000    0.00048026

     Total force =     0.002376     Total SCF correction =     0.000006

     Computing stress (Cartesian axis) and pressure

     negative rho (up, down):  8.724E-05 0.000E+00
          total   stress  (Ry/bohr**3)                   (kbar)     P=        0.40
   0.00000376  -0.00000000   0.00000000            0.55       -0.00        0.00
  -0.00000000   0.00000376  -0.00000000           -0.00        0.55       -0.00
   0.00000000   0.00000000   0.00000063            0.00        0.00        0.09

     Writing output data file /scratch/as3359/Ta2CH2k_bandsdos/Ta.save/

     General routines

     Parallel routines

   This run was terminated on:   8:56:20  22Apr2022

   JOB DONE.