     Program PWSCF v.6.8 starts on 22Mar2022 at 23:44:24

     R & G space division:  proc/nbgrp/npool/nimage =       2

     Reading input from Ta2CO.vcrelax.in

     Current dimensions of program PWSCF are:
     Max number of different atomic species (ntypx) = 10
     Max number of k-points (npk) =  40000
     Max angular momentum in pseudopotentials (lmaxx) =  4
     file Ta.pbesol-spfn-rrkjus_psl.1.0.0.UPF: wavefunction(s)  5S 5P renormalized

     Subspace diagonalization in iterative solution of the eigenvalue problem:
     a serial algorithm will be used

     Using Slab Decomposition

     bravais-lattice index     =            0
     lattice parameter (alat)  =       5.5500  a.u.
     unit-cell volume          =    1549.0441 (a.u.)^3
     number of atoms/cell      =            4
     number of atomic types    =            3
     number of electrons       =        64.00
     number of Kohn-Sham states=           38
     kinetic-energy cutoff     =      70.0000  Ry
     charge density cutoff     =     700.0000  Ry
     scf convergence threshold =      1.0E-12
     mixing beta               =       0.7000
     number of iterations used =            8  plain     mixing
     energy convergence thresh.=      1.0E-04
     force convergence thresh. =      1.0E-03
     press convergence thresh. =      5.0E-01
     Exchange-correlation= PBESOL
                           (   1   4  10   8   0   0   0)
     nstep                     =           50

     celldm(1)=   5.550000  celldm(2)=   0.000000  celldm(3)=   0.000000
     celldm(4)=   0.000000  celldm(5)=   0.000000  celldm(6)=   0.000000

     crystal axes: (cart. coord. in units of alat)
               a(1) = (   1.023061   0.000071   0.000000 )
               a(2) = (  -0.511470   0.885658   0.000000 )
               a(3) = (   0.000000   0.000000  10.000000 )

     reciprocal axes: (cart. coord. in units 2 pi/alat)
               b(1) = (  0.977420  0.564462  0.000000 )
               b(2) = ( -0.000078  1.129060  0.000000 )
               b(3) = (  0.000000  0.000000  0.100000 )

     PseudoPot. # 1 for Ta read from file:
     /shared/home/as3359/pseudo/Ta.pbesol-spfn-rrkjus_psl.1.0.0.UPF
     MD5 check sum: f099565ffaca9b150a52e9412a28e20b
     Pseudo is Ultrasoft + core correction, Zval = 27.0
     Generated using &quot;atomic&quot; code by A. Dal Corso  v.6.3
     Using radial grid of 1273 points,  8 beta functions with:
                l(1) =   0
                l(2) =   0
                l(3) =   1
                l(4) =   1
                l(5) =   2
                l(6) =   2
                l(7) =   3
                l(8) =   3
     Q(r) pseudized with 0 coefficients

     PseudoPot. # 2 for C  read from file:
     /shared/home/as3359/pseudo/C.pbesol-n-rrkjus_psl.1.0.0.UPF
     MD5 check sum: 05995be603a8a7c99da3dc4413f31573
     Pseudo is Ultrasoft + core correction, Zval =  4.0
     Generated using &quot;atomic&quot; code by A. Dal Corso  v.6.3MaX
     Using radial grid of 1073 points,  4 beta functions with:
                l(1) =   0
                l(2) =   0
                l(3) =   1
                l(4) =   1
     Q(r) pseudized with 0 coefficients

     PseudoPot. # 3 for O  read from file:
     /shared/home/as3359/pseudo/O.pbesol-n-rrkjus_psl.1.0.0.UPF
     MD5 check sum: dd9bad2534826f832ffc9296591fc5de
     Pseudo is Ultrasoft + core correction, Zval =  6.0
     Generated using &quot;atomic&quot; code by A. Dal Corso  v.6.3MaX
     Using radial grid of 1095 points,  4 beta functions with:
                l(1) =   0
                l(2) =   0
                l(3) =   1
                l(4) =   1
     Q(r) pseudized with 0 coefficients

     atomic species   valence    mass     pseudopotential
        Ta            27.00   180.94788     Ta( 1.00)
        C              4.00    12.01070     C ( 1.00)
        O              6.00    15.99940     O ( 1.00)

     No symmetry found

   Cartesian axes

     site n.     atom                  positions (alat units)
         1           C   tau(   1) = (   0.0000000   0.0000000   0.0000000  )
         2           Ta  tau(   2) = (   0.3772709   0.2651957  -0.5000000  )
         3           Ta  tau(   3) = (  -0.3080629   0.5337799   0.5000000  )
         4           O   tau(   4) = (   0.1110709   0.2669083   1.0000000  )

     number of k points=    74  Marzari-Vanderbilt smearing, width (Ry)=  0.0010
                       cart. coord. in units 2pi/alat
        k(    1) = (   0.0000000   0.0000000   0.0000000), wk =   0.0138889
        k(    2) = (  -0.0000065   0.0940883   0.0000000), wk =   0.0277778
        k(    3) = (  -0.0000130   0.1881766   0.0000000), wk =   0.0277778
        k(    4) = (  -0.0000195   0.2822649   0.0000000), wk =   0.0277778
        k(    5) = (  -0.0000260   0.3763532   0.0000000), wk =   0.0277778
        k(    6) = (  -0.0000325   0.4704415   0.0000000), wk =   0.0277778
        k(    7) = (   0.0000390  -0.5645298   0.0000000), wk =   0.0138889
        k(    8) = (   0.0814516   0.0470385   0.0000000), wk =   0.0277778
        k(    9) = (   0.0814451   0.1411268   0.0000000), wk =   0.0277778
        k(   10) = (   0.0814386   0.2352151   0.0000000), wk =   0.0277778
        k(   11) = (   0.0814322   0.3293034   0.0000000), wk =   0.0277778
        k(   12) = (   0.0814257   0.4233917   0.0000000), wk =   0.0277778
        k(   13) = (   0.0814192   0.5174800   0.0000000), wk =   0.0277778
        k(   14) = (   0.0814906  -0.5174912   0.0000000), wk =   0.0277778
        k(   15) = (   0.0814841  -0.4234030   0.0000000), wk =   0.0277778
        k(   16) = (   0.0814776  -0.3293147   0.0000000), wk =   0.0277778
        k(   17) = (   0.0814711  -0.2352264   0.0000000), wk =   0.0277778
        k(   18) = (   0.0814646  -0.1411381   0.0000000), wk =   0.0277778
        k(   19) = (   0.0814581  -0.0470498   0.0000000), wk =   0.0277778
        k(   20) = (   0.1629033   0.0940771   0.0000000), wk =   0.0277778
        k(   21) = (   0.1628968   0.1881653   0.0000000), wk =   0.0277778
        k(   22) = (   0.1628903   0.2822536   0.0000000), wk =   0.0277778
        k(   23) = (   0.1628838   0.3763419   0.0000000), wk =   0.0277778
        k(   24) = (   0.1628773   0.4704302   0.0000000), wk =   0.0277778
        k(   25) = (   0.1628708   0.5645185   0.0000000), wk =   0.0277778
        k(   26) = (   0.1629422  -0.4704527   0.0000000), wk =   0.0277778
        k(   27) = (   0.1629357  -0.3763644   0.0000000), wk =   0.0277778
        k(   28) = (   0.1629292  -0.2822761   0.0000000), wk =   0.0277778
        k(   29) = (   0.1629227  -0.1881878   0.0000000), wk =   0.0277778
        k(   30) = (   0.1629162  -0.0940995   0.0000000), wk =   0.0277778
        k(   31) = (   0.1629098  -0.0000112   0.0000000), wk =   0.0277778
        k(   32) = (   0.2443549   0.1411156   0.0000000), wk =   0.0277778
        k(   33) = (   0.2443484   0.2352039   0.0000000), wk =   0.0277778
        k(   34) = (   0.2443419   0.3292922   0.0000000), wk =   0.0277778
        k(   35) = (   0.2443354   0.4233805   0.0000000), wk =   0.0277778
        k(   36) = (   0.2443289   0.5174688   0.0000000), wk =   0.0277778
        k(   37) = (   0.2443224   0.6115571   0.0000000), wk =   0.0277778
        k(   38) = (   0.2443938  -0.4234142   0.0000000), wk =   0.0277778
        k(   39) = (   0.2443873  -0.3293259   0.0000000), wk =   0.0277778
        k(   40) = (   0.2443809  -0.2352376   0.0000000), wk =   0.0277778
        k(   41) = (   0.2443744  -0.1411493   0.0000000), wk =   0.0277778
        k(   42) = (   0.2443679  -0.0470610   0.0000000), wk =   0.0277778
        k(   43) = (   0.2443614   0.0470273   0.0000000), wk =   0.0277778
        k(   44) = (   0.3258065   0.1881541   0.0000000), wk =   0.0277778
        k(   45) = (   0.3258000   0.2822424   0.0000000), wk =   0.0277778
        k(   46) = (   0.3257935   0.3763307   0.0000000), wk =   0.0277778
        k(   47) = (   0.3257870   0.4704190   0.0000000), wk =   0.0277778
        k(   48) = (   0.3257806   0.5645073   0.0000000), wk =   0.0277778
        k(   49) = (   0.3257741   0.6585956   0.0000000), wk =   0.0277778
        k(   50) = (   0.3258455  -0.3763757   0.0000000), wk =   0.0277778
        k(   51) = (   0.3258390  -0.2822874   0.0000000), wk =   0.0277778
        k(   52) = (   0.3258325  -0.1881991   0.0000000), wk =   0.0277778
        k(   53) = (   0.3258260  -0.0941108   0.0000000), wk =   0.0277778
        k(   54) = (   0.3258195  -0.0000225   0.0000000), wk =   0.0277778
        k(   55) = (   0.3258130   0.0940658   0.0000000), wk =   0.0277778
        k(   56) = (   0.4072581   0.2351926   0.0000000), wk =   0.0277778
        k(   57) = (   0.4072517   0.3292809   0.0000000), wk =   0.0277778
        k(   58) = (   0.4072452   0.4233692   0.0000000), wk =   0.0277778
        k(   59) = (   0.4072387   0.5174575   0.0000000), wk =   0.0277778
        k(   60) = (   0.4072322   0.6115458   0.0000000), wk =   0.0277778
        k(   61) = (   0.4072257   0.7056341   0.0000000), wk =   0.0277778
        k(   62) = (   0.4072971  -0.3293371   0.0000000), wk =   0.0277778
        k(   63) = (   0.4072906  -0.2352488   0.0000000), wk =   0.0277778
        k(   64) = (   0.4072841  -0.1411606   0.0000000), wk =   0.0277778
        k(   65) = (   0.4072776  -0.0470723   0.0000000), wk =   0.0277778
        k(   66) = (   0.4072711   0.0470160   0.0000000), wk =   0.0277778
        k(   67) = (   0.4072646   0.1411043   0.0000000), wk =   0.0277778
        k(   68) = (  -0.4887098  -0.2822312   0.0000000), wk =   0.0138889
        k(   69) = (  -0.4887163  -0.1881429   0.0000000), wk =   0.0277778
        k(   70) = (  -0.4887228  -0.0940546   0.0000000), wk =   0.0277778
        k(   71) = (  -0.4887293   0.0000337   0.0000000), wk =   0.0277778
        k(   72) = (  -0.4887357   0.0941220   0.0000000), wk =   0.0277778
        k(   73) = (  -0.4887422   0.1882103   0.0000000), wk =   0.0277778
        k(   74) = (  -0.4886708  -0.8467609   0.0000000), wk =   0.0138889

     Initial potential from superposition of free atoms

     starting charge   63.99842, renormalised to   64.00000

     negative rho (up, down):  9.830E-05 0.000E+00
     Starting wfcs are   42 randomized atomic wfcs

     Self-consistent Calculation

     iteration #  1     ecut=    70.00 Ry     beta= 0.70
     Davidson diagonalization with overlap
     ethr =  1.00E-02,  avg # of iterations =  2.1

     negative rho (up, down):  1.888E-07 0.000E+00

     total energy              =   -1403.96516311 Ry
     estimated scf accuracy    <       2.25157079 Ry

[...]

     End of self-consistent calculation

          k = 0.0000 0.0000 0.0000 ( 15285 PWs)   bands (ev):

   -69.2322 -68.7111 -35.8599 -35.4264 -35.3834 -35.3611 -34.7722 -34.7400
   -20.8985 -20.8716 -20.8361 -20.8220 -20.8105 -20.7877 -20.7769 -20.4088
   -20.3927 -20.3766 -20.3535 -20.3462 -20.3283 -20.2764 -18.4891 -12.9807
    -7.7691  -5.1909  -4.0207  -3.4632  -2.6941  -2.2146  -1.7542  -1.1961
    -0.6854  -0.3323   0.2225   0.9136   1.7728   2.5279

          k =-0.0000 0.0941 0.0000 ( 15393 PWs)   bands (ev):

[...]

[...]
     Davidson diagonalization with overlap
     c_bands:  1 eigenvalues not converged
     ethr =  2.48E-08,  avg # of iterations =  4.9
     Minimization algorithm failed to find Fermi energy: reverting to bisection
     Possible cause: smearing is larger than the electronic band-gap.

[...]

     WARNING: bfgs curvature condition failed, Theta= 0.182
     new trust radius        =       0.1477999562 bohr
     new conv_thr            =            3.8E-13 Ry

[...]

     iteration # 14     ecut=    70.00 Ry     beta= 0.70
     Davidson diagonalization with overlap
     ethr =  9.27E-06,  avg # of iterations =  2.0
     Minimization algorithm failed to find Fermi energy: reverting to bisection
     Possible cause: smearing is larger than the electronic band-gap.

[...]

     WARNING: integrated charge=    64.00003806, expected=    64.00000000

[...]

     number of scf cycles    =  45
     number of bfgs steps    =  43

     enthalpy           old  =   -1405.8265044160 Ry
     enthalpy           new  =   -1405.8265194722 Ry

     CASE: enthalpy          _new < enthalpy          _old

     new trust radius        =       0.0059653371 bohr
     new conv_thr            =            1.0E-14 Ry

     new unit-cell volume =   1619.11367 a.u.^3 (   239.92789 Ang^3 )
     density =      2.69854 g/cm^3

[...]

ATOMIC_POSITIONS (crystal)
C             0.0000000000        0.0000000000        0.0000000000    0   0   0
Ta            0.6666973987        0.3323249822       -0.0400702376
Ta            0.3333379299        0.6665599583        0.0430604622
O             0.6653266538        0.3347731022        0.0801311303

     Writing output data file /scratch/as3359/Ta2CO_loop/Ta.save/
     NEW-OLD atomic charge density approx. for the potential

     negative rho (up, down):  1.580E-04 0.000E+00
     extrapolated charge   64.01668, renormalised to   64.00000

[...]

     Energy error            =      8.8E-06 Ry
     Gradient error          =      7.6E-04 Ry/Bohr
     Cell gradient error     =      4.5E-01 kbar

     bfgs converged in  46 scf cycles and  44 bfgs steps
     (criteria: energy <  1.0E-04 Ry, force <  1.0E-03Ry/Bohr, cell <  5.0E-01kbar)

     End of BFGS Geometry Optimization

     Final enthalpy           =   -1405.8265282915 Ry

     File /scratch/as3359/Ta2CO_loop/Ta.bfgs deleted, as requested
Begin final coordinates
     new unit-cell volume =   1619.11367 a.u.^3 (   239.92789 Ang^3 )
     density =      2.69854 g/cm^3

CELL_PARAMETERS (alat=  5.55000000)
   1.047457526  -0.003042052   0.000000000
  -0.525368498   0.905720514   0.000000000
   0.000000000   0.000000000  10.000000000

ATOMIC_POSITIONS (crystal)
C             0.0000000000        0.0000000000        0.0000000000    0   0   0
Ta            0.6666973987        0.3323249822       -0.0400702376
Ta            0.3333379299        0.6665599583        0.0430604622
O             0.6653266538        0.3347731022        0.0801311303
End final coordinates

     Writing output data file /scratch/as3359/Ta2CO_loop/Ta.save/

     Final scf calculation at the relaxed structure.
     The G-vectors are recalculated for the final unit cell
     Results may differ from those at the preceding step.

     Using Slab Decomposition

     bravais-lattice index     =            0
     lattice parameter (alat)  =       5.5500  a.u.
     unit-cell volume          =    1619.1137 (a.u.)^3
     number of atoms/cell      =            4
     number of atomic types    =            3
     number of electrons       =        64.00
     number of Kohn-Sham states=           38
     kinetic-energy cutoff     =      70.0000  Ry
     charge density cutoff     =     700.0000  Ry
     scf convergence threshold =      1.0E-14
     mixing beta               =       0.7000
     number of iterations used =            8  plain     mixing
     press convergence thresh. =      5.0E-01
     Exchange-correlation= PBESOL
                           (   1   4  10   8   0   0   0)

     celldm(1)=   5.550000  celldm(2)=   0.000000  celldm(3)=   0.000000
     celldm(4)=   0.000000  celldm(5)=   0.000000  celldm(6)=   0.000000

     crystal axes: (cart. coord. in units of alat)
               a(1) = (   1.047458  -0.003042   0.000000 )
               a(2) = (  -0.525368   0.905721   0.000000 )
               a(3) = (   0.000000   0.000000  10.000000 )

     reciprocal axes: (cart. coord. in units 2 pi/alat)
               b(1) = (  0.956304  0.554710  0.000000 )
               b(2) = (  0.003212  1.105956  0.000000 )
               b(3) = (  0.000000  0.000000  0.100000 )

     PseudoPot. # 1 for Ta read from file:
     /shared/home/as3359/pseudo/Ta.pbesol-spfn-rrkjus_psl.1.0.0.UPF
     MD5 check sum: f099565ffaca9b150a52e9412a28e20b
     Pseudo is Ultrasoft + core correction, Zval = 27.0
     Generated using &quot;atomic&quot; code by A. Dal Corso  v.6.3
     Using radial grid of 1273 points,  8 beta functions with:
                l(1) =   0
                l(2) =   0
                l(3) =   1
                l(4) =   1
                l(5) =   2
                l(6) =   2
                l(7) =   3
                l(8) =   3
     Q(r) pseudized with 0 coefficients

     PseudoPot. # 2 for C  read from file:
     /shared/home/as3359/pseudo/C.pbesol-n-rrkjus_psl.1.0.0.UPF
     MD5 check sum: 05995be603a8a7c99da3dc4413f31573
     Pseudo is Ultrasoft + core correction, Zval =  4.0
     Generated using &quot;atomic&quot; code by A. Dal Corso  v.6.3MaX
     Using radial grid of 1073 points,  4 beta functions with:
                l(1) =   0
                l(2) =   0
                l(3) =   1
                l(4) =   1
     Q(r) pseudized with 0 coefficients

     PseudoPot. # 3 for O  read from file:
     /shared/home/as3359/pseudo/O.pbesol-n-rrkjus_psl.1.0.0.UPF
     MD5 check sum: dd9bad2534826f832ffc9296591fc5de
     Pseudo is Ultrasoft + core correction, Zval =  6.0
     Generated using &quot;atomic&quot; code by A. Dal Corso  v.6.3MaX
     Using radial grid of 1095 points,  4 beta functions with:
                l(1) =   0
                l(2) =   0
                l(3) =   1
                l(4) =   1
     Q(r) pseudized with 0 coefficients

     atomic species   valence    mass     pseudopotential
        Ta            27.00   180.94788     Ta( 1.00)
        C              4.00    12.01070     C ( 1.00)
        O              6.00    15.99940     O ( 1.00)

     No symmetry found

   Cartesian axes

     site n.     atom                  positions (alat units)
         1           C   tau(   1) = (   0.0000000   0.0000000   0.0000000  )
         2           Ta  tau(   2) = (   0.5237441   0.2989654  -0.4007024  )
         3           Ta  tau(   3) = (  -0.0010323   0.6027030   0.4306046  )
         4           O   tau(   4) = (   0.5210222   0.3011869   0.8013113  )

     number of k points=    74  Marzari-Vanderbilt smearing, width (Ry)=  0.0010
                       cart. coord. in units 2pi/alat
        k(    1) = (   0.0000000   0.0000000   0.0000000), wk =   0.0138889
        k(    2) = (   0.0002677   0.0921630   0.0000000), wk =   0.0277778
        k(    3) = (   0.0005353   0.1843261   0.0000000), wk =   0.0277778
        k(    4) = (   0.0008030   0.2764891   0.0000000), wk =   0.0277778
        k(    5) = (   0.0010706   0.3686522   0.0000000), wk =   0.0277778
        k(    6) = (   0.0013383   0.4608152   0.0000000), wk =   0.0277778
        k(    7) = (  -0.0016060  -0.5529782   0.0000000), wk =   0.0138889
        k(    8) = (   0.0796920   0.0462258   0.0000000), wk =   0.0277778
        k(    9) = (   0.0799596   0.1383888   0.0000000), wk =   0.0277778
        k(   10) = (   0.0802273   0.2305519   0.0000000), wk =   0.0277778
        k(   11) = (   0.0804950   0.3227149   0.0000000), wk =   0.0277778
        k(   12) = (   0.0807626   0.4148779   0.0000000), wk =   0.0277778
        k(   13) = (   0.0810303   0.5070410   0.0000000), wk =   0.0277778
        k(   14) = (   0.0780860  -0.5067524   0.0000000), wk =   0.0277778
        k(   15) = (   0.0783537  -0.4145894   0.0000000), wk =   0.0277778
        k(   16) = (   0.0786213  -0.3224264   0.0000000), wk =   0.0277778
        k(   17) = (   0.0788890  -0.2302633   0.0000000), wk =   0.0277778
        k(   18) = (   0.0791566  -0.1381003   0.0000000), wk =   0.0277778
        k(   19) = (   0.0794243  -0.0459372   0.0000000), wk =   0.0277778
        k(   20) = (   0.1593839   0.0924516   0.0000000), wk =   0.0277778
        k(   21) = (   0.1596516   0.1846146   0.0000000), wk =   0.0277778
        k(   22) = (   0.1599193   0.2767777   0.0000000), wk =   0.0277778
        k(   23) = (   0.1601869   0.3689407   0.0000000), wk =   0.0277778
        k(   24) = (   0.1604546   0.4611037   0.0000000), wk =   0.0277778
        k(   25) = (   0.1607223   0.5532668   0.0000000), wk =   0.0277778
        k(   26) = (   0.1577780  -0.4605266   0.0000000), wk =   0.0277778
        k(   27) = (   0.1580456  -0.3683636   0.0000000), wk =   0.0277778
        k(   28) = (   0.1583133  -0.2762006   0.0000000), wk =   0.0277778
        k(   29) = (   0.1585810  -0.1840375   0.0000000), wk =   0.0277778
        k(   30) = (   0.1588486  -0.0918745   0.0000000), wk =   0.0277778
        k(   31) = (   0.1591163   0.0002886   0.0000000), wk =   0.0277778
        k(   32) = (   0.2390759   0.1386774   0.0000000), wk =   0.0277778
        k(   33) = (   0.2393436   0.2308404   0.0000000), wk =   0.0277778
        k(   34) = (   0.2396112   0.3230035   0.0000000), wk =   0.0277778
        k(   35) = (   0.2398789   0.4151665   0.0000000), wk =   0.0277778
        k(   36) = (   0.2401466   0.5073295   0.0000000), wk =   0.0277778
        k(   37) = (   0.2404142   0.5994926   0.0000000), wk =   0.0277778
        k(   38) = (   0.2374699  -0.4143008   0.0000000), wk =   0.0277778
        k(   39) = (   0.2377376  -0.3221378   0.0000000), wk =   0.0277778
        k(   40) = (   0.2380053  -0.2299748   0.0000000), wk =   0.0277778
        k(   41) = (   0.2382729  -0.1378117   0.0000000), wk =   0.0277778
        k(   42) = (   0.2385406  -0.0456487   0.0000000), wk =   0.0277778
        k(   43) = (   0.2388083   0.0465143   0.0000000), wk =   0.0277778
        k(   44) = (   0.3187679   0.1849032   0.0000000), wk =   0.0277778
        k(   45) = (   0.3190355   0.2770662   0.0000000), wk =   0.0277778
        k(   46) = (   0.3193032   0.3692293   0.0000000), wk =   0.0277778
        k(   47) = (   0.3195709   0.4613923   0.0000000), wk =   0.0277778
        k(   48) = (   0.3198385   0.5535553   0.0000000), wk =   0.0277778
        k(   49) = (   0.3201062   0.6457184   0.0000000), wk =   0.0277778
        k(   50) = (   0.3171619  -0.3680751   0.0000000), wk =   0.0277778
        k(   51) = (   0.3174296  -0.2759120   0.0000000), wk =   0.0277778
        k(   52) = (   0.3176972  -0.1837490   0.0000000), wk =   0.0277778
        k(   53) = (   0.3179649  -0.0915859   0.0000000), wk =   0.0277778
        k(   54) = (   0.3182326   0.0005771   0.0000000), wk =   0.0277778
        k(   55) = (   0.3185002   0.0927401   0.0000000), wk =   0.0277778
        k(   56) = (   0.3984599   0.2311290   0.0000000), wk =   0.0277778
        k(   57) = (   0.3987275   0.3232920   0.0000000), wk =   0.0277778
        k(   58) = (   0.3989952   0.4154551   0.0000000), wk =   0.0277778
        k(   59) = (   0.3992628   0.5076181   0.0000000), wk =   0.0277778
        k(   60) = (   0.3995305   0.5997811   0.0000000), wk =   0.0277778
        k(   61) = (   0.3997982   0.6919442   0.0000000), wk =   0.0277778
        k(   62) = (   0.3968539  -0.3218493   0.0000000), wk =   0.0277778
        k(   63) = (   0.3971215  -0.2296862   0.0000000), wk =   0.0277778
        k(   64) = (   0.3973892  -0.1375232   0.0000000), wk =   0.0277778
        k(   65) = (   0.3976569  -0.0453601   0.0000000), wk =   0.0277778
        k(   66) = (   0.3979245   0.0468029   0.0000000), wk =   0.0277778
        k(   67) = (   0.3981922   0.1389659   0.0000000), wk =   0.0277778
        k(   68) = (  -0.4781518  -0.2773548   0.0000000), wk =   0.0138889
        k(   69) = (  -0.4778842  -0.1851917   0.0000000), wk =   0.0277778
        k(   70) = (  -0.4776165  -0.0930287   0.0000000), wk =   0.0277778
        k(   71) = (  -0.4773488  -0.0008657   0.0000000), wk =   0.0277778
        k(   72) = (  -0.4770812   0.0912974   0.0000000), wk =   0.0277778
        k(   73) = (  -0.4768135   0.1834604   0.0000000), wk =   0.0277778
        k(   74) = (  -0.4797578  -0.8303330   0.0000000), wk =   0.0138889

     Initial potential from superposition of free atoms

     starting charge   63.99842, renormalised to   64.00000

     negative rho (up, down):  1.038E-04 0.000E+00
     Starting wfcs are   42 randomized atomic wfcs

     Self-consistent Calculation

     iteration #  1     ecut=    70.00 Ry     beta= 0.70
     Davidson diagonalization with overlap
     c_bands:  1 eigenvalues not converged
     c_bands:  4 eigenvalues not converged
     c_bands:  2 eigenvalues not converged
     c_bands:  3 eigenvalues not converged
     c_bands:  3 eigenvalues not converged
     c_bands:  2 eigenvalues not converged
     c_bands:  4 eigenvalues not converged
     c_bands:  2 eigenvalues not converged
     c_bands:  1 eigenvalues not converged
     c_bands:  2 eigenvalues not converged
     c_bands:  1 eigenvalues not converged
     c_bands:  1 eigenvalues not converged
     c_bands:  1 eigenvalues not converged
     c_bands:  2 eigenvalues not converged
     c_bands:  1 eigenvalues not converged
     c_bands:  4 eigenvalues not converged
     c_bands:  1 eigenvalues not converged
     c_bands:  1 eigenvalues not converged
     c_bands:  1 eigenvalues not converged
     c_bands:  1 eigenvalues not converged
     c_bands:  1 eigenvalues not converged
     c_bands:  2 eigenvalues not converged
     c_bands:  1 eigenvalues not converged
     c_bands:  1 eigenvalues not converged
     c_bands:  1 eigenvalues not converged
     c_bands:  1 eigenvalues not converged
     c_bands:  1 eigenvalues not converged
     c_bands:  1 eigenvalues not converged
     c_bands:  1 eigenvalues not converged
     c_bands:  1 eigenvalues not converged
     ethr =  1.00E-06,  avg # of iterations = 18.8

[...]

     total energy              =   -1405.82702090 Ry
     estimated scf accuracy    <          5.7E-14 Ry

     iteration # 29     ecut=    70.00 Ry     beta= 0.70
     Davidson diagonalization with overlap
     ethr =  1.00E-13,  avg # of iterations =  1.0

[...]

     End of self-consistent calculation

[...]

          k = 0.3982 0.1390 0.0000 ( 16017 PWs)   bands (ev):

[...]

          k =-0.4798-0.8303 0.0000 ( 16018 PWs)   bands (ev):

   -69.0272 -68.1164 -36.0831 -35.6105 -35.4691 -34.9101 -34.7671 -34.4453
   -20.7351 -20.6585 -20.6530 -20.6417 -20.6349 -20.6305 -20.6285 -19.8335
   -19.8241 -19.8146 -19.7861 -19.7691 -19.7442 -19.7300 -19.1652 -11.8291
    -8.1650  -5.7286  -5.6260  -5.2718  -4.7327  -3.6471  -2.1565   0.0137
     1.8483   2.4092   3.2012   3.4341   3.7569   4.5663

     the Fermi energy is    -0.1397 ev

!    total energy              =   -1405.82702090 Ry
     estimated scf accuracy    <          9.1E-15 Ry
     smearing contrib. (-TS)   =      -0.00001332 Ry
     internal energy E=F+TS    =   -1405.82700758 Ry

     The total energy is F=E-TS. E is the sum of the following terms:
     one-electron contribution =  -12409.27829959 Ry
     hartree contribution      =    6234.58069857 Ry
     xc contribution           =    -146.25465399 Ry
     ewald contribution        =    4915.12524743 Ry

     convergence has been achieved in  29 iterations

     negative rho (up, down):  1.128E-04 0.000E+00

     Forces acting on atoms (cartesian axes, Ry/au):

     atom    1 type  2   force =    -0.00002078   -0.00074179    0.00046576
     atom    2 type  1   force =    -0.00015523    0.00076120    0.00000110
     atom    3 type  1   force =    -0.00008713    0.00019800   -0.00044793
     atom    4 type  3   force =     0.00026314   -0.00021742   -0.00001893

     Total force =     0.000984     Total SCF correction =     0.000001

     Computing stress (Cartesian axis) and pressure

     negative rho (up, down):  1.128E-04 0.000E+00
          total   stress  (Ry/bohr**3)                   (kbar)     P=        0.15
   0.00000351   0.00000061   0.00000081            0.52        0.09        0.12
   0.00000061   0.00000585  -0.00000135            0.09        0.86       -0.20
   0.00000081  -0.00000135  -0.00000621            0.12       -0.20       -0.91

     Writing output data file /scratch/as3359/Ta2CO_loop/Ta.save/

     General routines

     Parallel routines

   This run was terminated on:   9:35: 1  23Mar2022

   JOB DONE.