     Program PWSCF v.6.8 starts on  6Apr2022 at 23:23:33

     R & G space division:  proc/nbgrp/npool/nimage =       2

     Reading input from Ta4C3.scf.vcrelax1.in
Warning: card  O   15.9994  O.PBESOL-N-RRKJUS_PSL.1.0.0.UPF ignored

     Current dimensions of program PWSCF are:
     Max number of different atomic species (ntypx) = 10
     Max number of k-points (npk) =  40000
     Max angular momentum in pseudopotentials (lmaxx) =  4
     file Ta.pbesol-spfn-rrkjus_psl.1.0.0.UPF: wavefunction(s)  5S 5P renormalized

     Subspace diagonalization in iterative solution of the eigenvalue problem:
     a serial algorithm will be used

     Using Slab Decomposition

     bravais-lattice index     =            0
     lattice parameter (alat)  =       5.5500  a.u.
     unit-cell volume          =     983.1817 (a.u.)^3
     number of atoms/cell      =            7
     number of atomic types    =            2
     number of electrons       =       120.00
     number of Kohn-Sham states=           72
     kinetic-energy cutoff     =      60.0000  Ry
     charge density cutoff     =     400.0000  Ry
     scf convergence threshold =      1.0E-12
     mixing beta               =       0.7000
     number of iterations used =            8  plain     mixing
     energy convergence thresh.=      1.0E-04
     force convergence thresh. =      1.0E-03
     press convergence thresh. =      5.0E-01
     Exchange-correlation= PBESOL
                           (   1   4  10   8   0   0   0)
     nstep                     =           50

     celldm(1)=   5.550000  celldm(2)=   0.000000  celldm(3)=   0.000000
     celldm(4)=   0.000000  celldm(5)=   0.000000  celldm(6)=   0.000000

     crystal axes: (cart. coord. in units of alat)
               a(1) = (   1.052048  -0.000001   0.000000 )
               a(2) = (  -0.526025   0.911105   0.000000 )
               a(3) = (   0.000000   0.000000   6.000000 )

     reciprocal axes: (cart. coord. in units 2 pi/alat)
               b(1) = (  0.950527  0.548786  0.000000 )
               b(2) = (  0.000001  1.097569  0.000000 )
               b(3) = (  0.000000  0.000000  0.166667 )

     PseudoPot. # 1 for Ta read from file:
     /shared/home/as3359/pseudo/Ta.pbesol-spfn-rrkjus_psl.1.0.0.UPF
     MD5 check sum: f099565ffaca9b150a52e9412a28e20b
     Pseudo is Ultrasoft + core correction, Zval = 27.0
     Generated using &quot;atomic&quot; code by A. Dal Corso  v.6.3
     Using radial grid of 1273 points,  8 beta functions with:
                l(1) =   0
                l(2) =   0
                l(3) =   1
                l(4) =   1
                l(5) =   2
                l(6) =   2
                l(7) =   3
                l(8) =   3
     Q(r) pseudized with 0 coefficients

     PseudoPot. # 2 for C  read from file:
     /shared/home/as3359/pseudo/C.pbesol-n-rrkjus_psl.1.0.0.UPF
     MD5 check sum: 05995be603a8a7c99da3dc4413f31573
     Pseudo is Ultrasoft + core correction, Zval =  4.0
     Generated using &quot;atomic&quot; code by A. Dal Corso  v.6.3MaX
     Using radial grid of 1073 points,  4 beta functions with:
                l(1) =   0
                l(2) =   0
                l(3) =   1
                l(4) =   1
     Q(r) pseudized with 0 coefficients

     atomic species   valence    mass     pseudopotential
        Ta            27.00   180.94788     Ta( 1.00)
        C              4.00    12.01070     C ( 1.00)

     No symmetry found

   Cartesian axes

     site n.     atom                  positions (alat units)
         1           Ta  tau(   1) = (  -0.0000016   0.6074003  -0.1614180  )
         2           C   tau(   2) = (  -0.0000003  -0.0000007   0.2347305  )
         3           Ta  tau(   3) = (   0.5260242   0.3037019   0.6774684  )
         4           C   tau(   4) = (  -0.0000008   0.6074021   1.1309545  )
         5           Ta  tau(   5) = (  -0.0000003  -0.0000008   1.5838175  )
         6           C   tau(   6) = (   0.5260243   0.3037021   2.0264468  )
         7           Ta  tau(   7) = (   0.0000005   0.6074051   2.4225670  )

     number of k points=    74  Marzari-Vanderbilt smearing, width (Ry)=  0.0010
                       cart. coord. in units 2pi/alat
        k(    1) = (   0.0000000   0.0000000   0.0000000), wk =   0.0138889
        k(    2) = (   0.0000001   0.0914641   0.0000000), wk =   0.0277778
        k(    3) = (   0.0000002   0.1829282   0.0000000), wk =   0.0277778
        k(    4) = (   0.0000002   0.2743924   0.0000000), wk =   0.0277778
        k(    5) = (   0.0000003   0.3658565   0.0000000), wk =   0.0277778
        k(    6) = (   0.0000004   0.4573206   0.0000000), wk =   0.0277778
        k(    7) = (  -0.0000005  -0.5487847   0.0000000), wk =   0.0138889
        k(    8) = (   0.0792106   0.0457321   0.0000000), wk =   0.0277778
        k(    9) = (   0.0792107   0.1371963   0.0000000), wk =   0.0277778
        k(   10) = (   0.0792108   0.2286604   0.0000000), wk =   0.0277778
        k(   11) = (   0.0792109   0.3201245   0.0000000), wk =   0.0277778
        k(   12) = (   0.0792109   0.4115886   0.0000000), wk =   0.0277778
        k(   13) = (   0.0792110   0.5030527   0.0000000), wk =   0.0277778
        k(   14) = (   0.0792101  -0.5030526   0.0000000), wk =   0.0277778
        k(   15) = (   0.0792102  -0.4115885   0.0000000), wk =   0.0277778
        k(   16) = (   0.0792103  -0.3201244   0.0000000), wk =   0.0277778
        k(   17) = (   0.0792104  -0.2286602   0.0000000), wk =   0.0277778
        k(   18) = (   0.0792105  -0.1371961   0.0000000), wk =   0.0277778
        k(   19) = (   0.0792105  -0.0457320   0.0000000), wk =   0.0277778
        k(   20) = (   0.1584212   0.0914643   0.0000000), wk =   0.0277778
        k(   21) = (   0.1584213   0.1829284   0.0000000), wk =   0.0277778
        k(   22) = (   0.1584214   0.2743925   0.0000000), wk =   0.0277778
        k(   23) = (   0.1584215   0.3658566   0.0000000), wk =   0.0277778
        k(   24) = (   0.1584216   0.4573207   0.0000000), wk =   0.0277778
        k(   25) = (   0.1584216   0.5487849   0.0000000), wk =   0.0277778
        k(   26) = (   0.1584207  -0.4573205   0.0000000), wk =   0.0277778
        k(   27) = (   0.1584208  -0.3658563   0.0000000), wk =   0.0277778
        k(   28) = (   0.1584209  -0.2743922   0.0000000), wk =   0.0277778
        k(   29) = (   0.1584210  -0.1829281   0.0000000), wk =   0.0277778
        k(   30) = (   0.1584211  -0.0914640   0.0000000), wk =   0.0277778
        k(   31) = (   0.1584211   0.0000001   0.0000000), wk =   0.0277778
        k(   32) = (   0.2376318   0.1371964   0.0000000), wk =   0.0277778
        k(   33) = (   0.2376319   0.2286605   0.0000000), wk =   0.0277778
        k(   34) = (   0.2376320   0.3201246   0.0000000), wk =   0.0277778
        k(   35) = (   0.2376321   0.4115888   0.0000000), wk =   0.0277778
        k(   36) = (   0.2376322   0.5030529   0.0000000), wk =   0.0277778
        k(   37) = (   0.2376322   0.5945170   0.0000000), wk =   0.0277778
        k(   38) = (   0.2376314  -0.4115883   0.0000000), wk =   0.0277778
        k(   39) = (   0.2376314  -0.3201242   0.0000000), wk =   0.0277778
        k(   40) = (   0.2376315  -0.2286601   0.0000000), wk =   0.0277778
        k(   41) = (   0.2376316  -0.1371960   0.0000000), wk =   0.0277778
        k(   42) = (   0.2376317  -0.0457319   0.0000000), wk =   0.0277778
        k(   43) = (   0.2376318   0.0457323   0.0000000), wk =   0.0277778
        k(   44) = (   0.3168425   0.1829285   0.0000000), wk =   0.0277778
        k(   45) = (   0.3168425   0.2743926   0.0000000), wk =   0.0277778
        k(   46) = (   0.3168426   0.3658568   0.0000000), wk =   0.0277778
        k(   47) = (   0.3168427   0.4573209   0.0000000), wk =   0.0277778
        k(   48) = (   0.3168428   0.5487850   0.0000000), wk =   0.0277778
        k(   49) = (   0.3168429   0.6402491   0.0000000), wk =   0.0277778
        k(   50) = (   0.3168420  -0.3658562   0.0000000), wk =   0.0277778
        k(   51) = (   0.3168421  -0.2743921   0.0000000), wk =   0.0277778
        k(   52) = (   0.3168421  -0.1829280   0.0000000), wk =   0.0277778
        k(   53) = (   0.3168422  -0.0914638   0.0000000), wk =   0.0277778
        k(   54) = (   0.3168423   0.0000003   0.0000000), wk =   0.0277778
        k(   55) = (   0.3168424   0.0914644   0.0000000), wk =   0.0277778
        k(   56) = (   0.3960531   0.2286607   0.0000000), wk =   0.0277778
        k(   57) = (   0.3960532   0.3201248   0.0000000), wk =   0.0277778
        k(   58) = (   0.3960532   0.4115889   0.0000000), wk =   0.0277778
        k(   59) = (   0.3960533   0.5030530   0.0000000), wk =   0.0277778
        k(   60) = (   0.3960534   0.5945171   0.0000000), wk =   0.0277778
        k(   61) = (   0.3960535   0.6859813   0.0000000), wk =   0.0277778
        k(   62) = (   0.3960526  -0.3201241   0.0000000), wk =   0.0277778
        k(   63) = (   0.3960527  -0.2286600   0.0000000), wk =   0.0277778
        k(   64) = (   0.3960527  -0.1371958   0.0000000), wk =   0.0277778
        k(   65) = (   0.3960528  -0.0457317   0.0000000), wk =   0.0277778
        k(   66) = (   0.3960529   0.0457324   0.0000000), wk =   0.0277778
        k(   67) = (   0.3960530   0.1371965   0.0000000), wk =   0.0277778
        k(   68) = (  -0.4752637  -0.2743928   0.0000000), wk =   0.0138889
        k(   69) = (  -0.4752636  -0.1829287   0.0000000), wk =   0.0277778
        k(   70) = (  -0.4752635  -0.0914645   0.0000000), wk =   0.0277778
        k(   71) = (  -0.4752634  -0.0000004   0.0000000), wk =   0.0277778
        k(   72) = (  -0.4752634   0.0914637   0.0000000), wk =   0.0277778
        k(   73) = (  -0.4752633   0.1829278   0.0000000), wk =   0.0277778
        k(   74) = (  -0.4752642  -0.8231775   0.0000000), wk =   0.0138889

     Check: negative core charge=   -0.000002

     Initial potential from superposition of free atoms

     starting charge  119.99679, renormalised to  120.00000

     negative rho (up, down):  1.014E-08 0.000E+00
     Starting wfcs are   80 randomized atomic wfcs

     Self-consistent Calculation

     iteration #  1     ecut=    60.00 Ry     beta= 0.70
     Davidson diagonalization with overlap
     ethr =  1.00E-02,  avg # of iterations =  2.2

     negative rho (up, down):  3.250E-08 0.000E+00

     total energy              =   -2756.60779646 Ry
     estimated scf accuracy    <       3.73923627 Ry

[...]

     iteration # 15     ecut=    60.00 Ry     beta= 0.70
     Davidson diagonalization with overlap
     c_bands:  1 eigenvalues not converged
     ethr =  5.68E-06,  avg # of iterations =  2.3

[...]

     End of self-consistent calculation

          k = 0.0000 0.0000 0.0000 (  7661 PWs)   bands (ev):

   -57.5423 -57.5235 -57.0319 -57.0312 -24.4358 -24.1771 -23.8049 -23.8049
   -23.7772 -23.7772 -23.6647 -23.5988 -23.1826 -23.1826 -23.1819 -23.1819
    -9.2216  -9.2156  -9.2014  -9.2008  -9.2008  -9.1912  -9.1912  -9.1891
    -9.1771  -9.1771  -9.1680  -9.1680  -9.1555  -9.1531  -8.7746  -8.7738
    -8.7335  -8.7335  -8.7327  -8.7327  -8.7147  -8.7147  -8.7139  -8.7139
[...]
C             0.5251753685        0.3032118714        2.0263996144
Ta            0.0000004665        0.6064244378        2.4226569964

     Writing output data file /scratch/as3359/Ta4C3_loop/Ta.save/
     NEW-OLD atomic charge density approx. for the potential

     Check: negative core charge=   -0.000002
     extrapolated charge  119.61169, renormalised to  120.00000

[...]

     WARNING: integrated charge=   120.00012521, expected=   120.00000000

[...]

     iteration #  5     ecut=    60.00 Ry     beta= 0.70
     Davidson diagonalization with overlap
     ethr =  3.51E-03,  avg # of iterations =  2.5
     Minimization algorithm failed to find Fermi energy: reverting to bisection
     Possible cause: smearing is larger than the electronic band-gap.

[...]

     WARNING: integrated charge=   120.00004910, expected=   120.00000000

[...]

     Energy error            =      1.2E-04 Ry
     Gradient error          =      1.8E-03 Ry/Bohr
     Cell gradient error     =      1.9E+00 kbar

[...]

     enthalpy           old  =   -2759.1632653146 Ry
     enthalpy           new  =   -2759.1633899372 Ry

     CASE: enthalpy          _new < enthalpy          _old

[...]

     number of scf cycles    =   3
     number of bfgs steps    =   2

     enthalpy           old  =   -2759.1633899372 Ry
     enthalpy           new  =   -2759.1634024167 Ry

     CASE: enthalpy          _new < enthalpy          _old

     new trust radius        =       0.0020837080 bohr
     new conv_thr            =            1.0E-14 Ry

     new unit-cell volume =    978.83995 a.u.^3 (   145.04912 Ang^3 )
     density =      8.69855 g/cm^3

[...]

ATOMIC_POSITIONS (alat)
Ta           -0.0000011382        0.6060580822       -0.1621615708
C            -0.0000004714       -0.0000010724        0.2348879056
Ta            0.5248613899        0.3030295892        0.6774528082
C            -0.0000004235        0.6060596897        1.1306507651
Ta           -0.0000000325       -0.0000001175        1.5838857115
C             0.5248618748        0.3030306715        2.0263978143
Ta            0.0000003998        0.6060615935        2.4234532661

     Writing output data file /scratch/as3359/Ta4C3_loop/Ta.save/
     NEW-OLD atomic charge density approx. for the potential

     Check: negative core charge=   -0.000002
     extrapolated charge  119.97108, renormalised to  120.00000

[...]

     Energy error            =      3.8E-06 Ry
     Gradient error          =      6.6E-04 Ry/Bohr
     Cell gradient error     =      3.5E-01 kbar

     bfgs converged in   4 scf cycles and   3 bfgs steps
     (criteria: energy <  1.0E-04 Ry, force <  1.0E-03Ry/Bohr, cell <  5.0E-01kbar)

     End of BFGS Geometry Optimization

     Final enthalpy           =   -2759.1634061765 Ry

     File /scratch/as3359/Ta4C3_loop/Ta.bfgs deleted, as requested
Begin final coordinates
     new unit-cell volume =    978.83995 a.u.^3 (   145.04912 Ang^3 )
     density =      8.69855 g/cm^3

CELL_PARAMETERS (alat=  5.55000000)
   1.049723137  -0.000000690   0.000000000
  -0.524862166   0.909090000   0.000000000
   0.000000000   0.000000000   6.000000000

ATOMIC_POSITIONS (alat)
Ta           -0.0000011382        0.6060580822       -0.1621615708
C            -0.0000004714       -0.0000010724        0.2348879056
Ta            0.5248613899        0.3030295892        0.6774528082
C            -0.0000004235        0.6060596897        1.1306507651
Ta           -0.0000000325       -0.0000001175        1.5838857115
C             0.5248618748        0.3030306715        2.0263978143
Ta            0.0000003998        0.6060615935        2.4234532661
End final coordinates

     Writing output data file /scratch/as3359/Ta4C3_loop/Ta.save/

     Final scf calculation at the relaxed structure.
     The G-vectors are recalculated for the final unit cell
     Results may differ from those at the preceding step.

     Using Slab Decomposition

     bravais-lattice index     =            0
     lattice parameter (alat)  =       5.5500  a.u.
     unit-cell volume          =     978.8399 (a.u.)^3
     number of atoms/cell      =            7
     number of atomic types    =            2
     number of electrons       =       120.00
     number of Kohn-Sham states=           72
     kinetic-energy cutoff     =      60.0000  Ry
     charge density cutoff     =     400.0000  Ry
     scf convergence threshold =      1.0E-14
     mixing beta               =       0.7000
     number of iterations used =            8  plain     mixing
     press convergence thresh. =      5.0E-01
     Exchange-correlation= PBESOL
                           (   1   4  10   8   0   0   0)

     celldm(1)=   5.550000  celldm(2)=   0.000000  celldm(3)=   0.000000
     celldm(4)=   0.000000  celldm(5)=   0.000000  celldm(6)=   0.000000

     crystal axes: (cart. coord. in units of alat)
               a(1) = (   1.049723  -0.000001   0.000000 )
               a(2) = (  -0.524862   0.909090   0.000000 )
               a(3) = (   0.000000   0.000000   6.000000 )

     reciprocal axes: (cart. coord. in units 2 pi/alat)
               b(1) = (  0.952633  0.550001  0.000000 )
               b(2) = (  0.000001  1.100002  0.000000 )
               b(3) = (  0.000000  0.000000  0.166667 )

     PseudoPot. # 1 for Ta read from file:
     /shared/home/as3359/pseudo/Ta.pbesol-spfn-rrkjus_psl.1.0.0.UPF
     MD5 check sum: f099565ffaca9b150a52e9412a28e20b
     Pseudo is Ultrasoft + core correction, Zval = 27.0
     Generated using &quot;atomic&quot; code by A. Dal Corso  v.6.3
     Using radial grid of 1273 points,  8 beta functions with:
                l(1) =   0
                l(2) =   0
                l(3) =   1
                l(4) =   1
                l(5) =   2
                l(6) =   2
                l(7) =   3
                l(8) =   3
     Q(r) pseudized with 0 coefficients

     PseudoPot. # 2 for C  read from file:
     /shared/home/as3359/pseudo/C.pbesol-n-rrkjus_psl.1.0.0.UPF
     MD5 check sum: 05995be603a8a7c99da3dc4413f31573
     Pseudo is Ultrasoft + core correction, Zval =  4.0
     Generated using &quot;atomic&quot; code by A. Dal Corso  v.6.3MaX
     Using radial grid of 1073 points,  4 beta functions with:
                l(1) =   0
                l(2) =   0
                l(3) =   1
                l(4) =   1
     Q(r) pseudized with 0 coefficients

     atomic species   valence    mass     pseudopotential
        Ta            27.00   180.94788     Ta( 1.00)
        C              4.00    12.01070     C ( 1.00)

     No symmetry found

   Cartesian axes

     site n.     atom                  positions (alat units)
         1           Ta  tau(   1) = (  -0.0000011   0.6060581  -0.1621616  )
         2           C   tau(   2) = (  -0.0000005  -0.0000011   0.2348879  )
         3           Ta  tau(   3) = (   0.5248614   0.3030296   0.6774528  )
         4           C   tau(   4) = (  -0.0000004   0.6060597   1.1306508  )
         5           Ta  tau(   5) = (  -0.0000000  -0.0000001   1.5838857  )
         6           C   tau(   6) = (   0.5248619   0.3030307   2.0263978  )
         7           Ta  tau(   7) = (   0.0000004   0.6060616   2.4234533  )

     number of k points=    74  Marzari-Vanderbilt smearing, width (Ry)=  0.0010
                       cart. coord. in units 2pi/alat
        k(    1) = (   0.0000000   0.0000000   0.0000000), wk =   0.0138889
        k(    2) = (   0.0000001   0.0916668   0.0000000), wk =   0.0277778
        k(    3) = (   0.0000001   0.1833336   0.0000000), wk =   0.0277778
        k(    4) = (   0.0000002   0.2750004   0.0000000), wk =   0.0277778
        k(    5) = (   0.0000002   0.3666672   0.0000000), wk =   0.0277778
        k(    6) = (   0.0000003   0.4583340   0.0000000), wk =   0.0277778
        k(    7) = (  -0.0000004  -0.5500008   0.0000000), wk =   0.0138889
        k(    8) = (   0.0793860   0.0458334   0.0000000), wk =   0.0277778
        k(    9) = (   0.0793861   0.1375002   0.0000000), wk =   0.0277778
        k(   10) = (   0.0793862   0.2291670   0.0000000), wk =   0.0277778
        k(   11) = (   0.0793862   0.3208338   0.0000000), wk =   0.0277778
        k(   12) = (   0.0793863   0.4125006   0.0000000), wk =   0.0277778
        k(   13) = (   0.0793863   0.5041674   0.0000000), wk =   0.0277778
        k(   14) = (   0.0793857  -0.5041673   0.0000000), wk =   0.0277778
        k(   15) = (   0.0793857  -0.4125005   0.0000000), wk =   0.0277778
        k(   16) = (   0.0793858  -0.3208337   0.0000000), wk =   0.0277778
        k(   17) = (   0.0793859  -0.2291669   0.0000000), wk =   0.0277778
        k(   18) = (   0.0793859  -0.1375001   0.0000000), wk =   0.0277778
        k(   19) = (   0.0793860  -0.0458333   0.0000000), wk =   0.0277778
        k(   20) = (   0.1587721   0.0916669   0.0000000), wk =   0.0277778
        k(   21) = (   0.1587721   0.1833337   0.0000000), wk =   0.0277778
        k(   22) = (   0.1587722   0.2750005   0.0000000), wk =   0.0277778
        k(   23) = (   0.1587723   0.3666673   0.0000000), wk =   0.0277778
        k(   24) = (   0.1587723   0.4583341   0.0000000), wk =   0.0277778
        k(   25) = (   0.1587724   0.5500009   0.0000000), wk =   0.0277778
        k(   26) = (   0.1587717  -0.4583339   0.0000000), wk =   0.0277778
        k(   27) = (   0.1587718  -0.3666671   0.0000000), wk =   0.0277778
        k(   28) = (   0.1587718  -0.2750003   0.0000000), wk =   0.0277778
        k(   29) = (   0.1587719  -0.1833335   0.0000000), wk =   0.0277778
        k(   30) = (   0.1587720  -0.0916667   0.0000000), wk =   0.0277778
        k(   31) = (   0.1587720   0.0000001   0.0000000), wk =   0.0277778
        k(   32) = (   0.2381581   0.1375003   0.0000000), wk =   0.0277778
        k(   33) = (   0.2381582   0.2291671   0.0000000), wk =   0.0277778
        k(   34) = (   0.2381582   0.3208339   0.0000000), wk =   0.0277778
        k(   35) = (   0.2381583   0.4125007   0.0000000), wk =   0.0277778
        k(   36) = (   0.2381584   0.5041675   0.0000000), wk =   0.0277778
        k(   37) = (   0.2381584   0.5958343   0.0000000), wk =   0.0277778
        k(   38) = (   0.2381578  -0.4125004   0.0000000), wk =   0.0277778
        k(   39) = (   0.2381578  -0.3208336   0.0000000), wk =   0.0277778
        k(   40) = (   0.2381579  -0.2291668   0.0000000), wk =   0.0277778
        k(   41) = (   0.2381579  -0.1375000   0.0000000), wk =   0.0277778
        k(   42) = (   0.2381580  -0.0458332   0.0000000), wk =   0.0277778
        k(   43) = (   0.2381581   0.0458336   0.0000000), wk =   0.0277778
        k(   44) = (   0.3175442   0.1833338   0.0000000), wk =   0.0277778
        k(   45) = (   0.3175442   0.2750006   0.0000000), wk =   0.0277778
        k(   46) = (   0.3175443   0.3666674   0.0000000), wk =   0.0277778
        k(   47) = (   0.3175443   0.4583342   0.0000000), wk =   0.0277778
        k(   48) = (   0.3175444   0.5500010   0.0000000), wk =   0.0277778
        k(   49) = (   0.3175445   0.6416678   0.0000000), wk =   0.0277778
        k(   50) = (   0.3175438  -0.3666670   0.0000000), wk =   0.0277778
        k(   51) = (   0.3175439  -0.2750002   0.0000000), wk =   0.0277778
        k(   52) = (   0.3175439  -0.1833334   0.0000000), wk =   0.0277778
        k(   53) = (   0.3175440  -0.0916666   0.0000000), wk =   0.0277778
        k(   54) = (   0.3175440   0.0000002   0.0000000), wk =   0.0277778
        k(   55) = (   0.3175441   0.0916670   0.0000000), wk =   0.0277778
        k(   56) = (   0.3969302   0.2291672   0.0000000), wk =   0.0277778
        k(   57) = (   0.3969303   0.3208340   0.0000000), wk =   0.0277778
        k(   58) = (   0.3969303   0.4125008   0.0000000), wk =   0.0277778
        k(   59) = (   0.3969304   0.5041676   0.0000000), wk =   0.0277778
        k(   60) = (   0.3969305   0.5958344   0.0000000), wk =   0.0277778
        k(   61) = (   0.3969305   0.6875012   0.0000000), wk =   0.0277778
        k(   62) = (   0.3969298  -0.3208335   0.0000000), wk =   0.0277778
        k(   63) = (   0.3969299  -0.2291667   0.0000000), wk =   0.0277778
        k(   64) = (   0.3969300  -0.1374999   0.0000000), wk =   0.0277778
        k(   65) = (   0.3969300  -0.0458331   0.0000000), wk =   0.0277778
        k(   66) = (   0.3969301   0.0458337   0.0000000), wk =   0.0277778
        k(   67) = (   0.3969301   0.1375005   0.0000000), wk =   0.0277778
        k(   68) = (  -0.4763163  -0.2750007   0.0000000), wk =   0.0138889
        k(   69) = (  -0.4763162  -0.1833339   0.0000000), wk =   0.0277778
        k(   70) = (  -0.4763161  -0.0916671   0.0000000), wk =   0.0277778
        k(   71) = (  -0.4763161  -0.0000003   0.0000000), wk =   0.0277778
        k(   72) = (  -0.4763160   0.0916665   0.0000000), wk =   0.0277778
        k(   73) = (  -0.4763160   0.1833333   0.0000000), wk =   0.0277778
        k(   74) = (  -0.4763166  -0.8250015   0.0000000), wk =   0.0138889

     Check: negative core charge=   -0.000002

     Initial potential from superposition of free atoms

     starting charge  119.99679, renormalised to  120.00000

     negative rho (up, down):  1.814E-08 0.000E+00
     Starting wfcs are   80 randomized atomic wfcs

     Self-consistent Calculation

[...]

     negative rho (up, down):  2.287E-06 0.000E+00

[...]

     iteration #  7     ecut=    60.00 Ry     beta= 0.70
     Davidson diagonalization with overlap
     ethr =  1.51E-04,  avg # of iterations =  5.2
     Minimization algorithm failed to find Fermi energy: reverting to bisection
     Possible cause: smearing is larger than the electronic band-gap.

[...]

     iteration # 11     ecut=    60.00 Ry     beta= 0.70
     Davidson diagonalization with overlap
     c_bands:  1 eigenvalues not converged
     ethr =  3.80E-05,  avg # of iterations =  1.6

[...]

     total energy              =   -2759.16306522 Ry
     estimated scf accuracy    <          2.9E-13 Ry

     iteration # 32     ecut=    60.00 Ry     beta= 0.70
     Davidson diagonalization with overlap
     ethr =  1.00E-13,  avg # of iterations =  1.0

     End of self-consistent calculation

[...]

          k = 0.3969 0.1375 0.0000 (  7684 PWs)   bands (ev):

[...]

          k =-0.4763-0.8250 0.0000 (  7688 PWs)   bands (ev):

   -57.4266 -57.4204 -56.9189 -56.9188 -24.4585 -24.4034 -24.0996 -24.0130
   -23.9159 -23.8465 -23.6799 -23.6795 -23.5487 -23.5313 -23.2475 -23.2466
    -9.1458  -9.1286  -9.1278  -9.1271  -9.1265  -9.1213  -9.1119  -9.1067
    -9.1062  -9.1054  -9.1046  -9.1039  -9.1013  -9.0956  -8.6827  -8.6826
    -8.6780  -8.6779  -8.6642  -8.6642  -8.6408  -8.6408  -8.6222  -8.6221
    -8.6004  -8.6003  -8.5864  -8.5864  -1.3144  -0.6380   0.5028   2.8374
     4.1691   5.6404   6.0134   6.0402   6.2566   6.8742   6.9051   6.9944
     8.6174   9.9939  11.2402  11.2892  12.3457  13.5886  13.6690  13.8060
    14.1039  14.4912  14.9059  15.4008  15.4233  15.4282  15.7604  15.8687

     the Fermi energy is    11.1214 ev

!    total energy              =   -2759.16306522 Ry
     estimated scf accuracy    <          6.0E-15 Ry
     smearing contrib. (-TS)   =      -0.00001585 Ry
     internal energy E=F+TS    =   -2759.16304937 Ry

     The total energy is F=E-TS. E is the sum of the following terms:
     one-electron contribution =   -8681.79989617 Ry
     hartree contribution      =    4447.20840813 Ry
     xc contribution           =    -282.42178736 Ry
     ewald contribution        =    1757.85022603 Ry

     convergence has been achieved in  32 iterations

     Forces acting on atoms (cartesian axes, Ry/au):

     atom    1 type  1   force =     0.00000018    0.00000040   -0.00061736
     atom    2 type  2   force =     0.00000001    0.00000001   -0.00056281
     atom    3 type  1   force =    -0.00000022   -0.00000052   -0.00046807
     atom    4 type  2   force =     0.00000004    0.00000011   -0.00002161
     atom    5 type  1   force =     0.00000024    0.00000057    0.00037704
     atom    6 type  2   force =    -0.00000004   -0.00000007    0.00062095
     atom    7 type  1   force =    -0.00000021   -0.00000050    0.00067186

     Total force =     0.001377     Total SCF correction =     0.000001

     Computing stress (Cartesian axis) and pressure

          total   stress  (Ry/bohr**3)                   (kbar)     P=       -3.05
   0.00000041   0.00000000  -0.00000000            0.06        0.00       -0.00
   0.00000000   0.00000040  -0.00000000            0.00        0.06       -0.00
  -0.00000000  -0.00000000  -0.00006302           -0.00       -0.00       -9.27

     Writing output data file /scratch/as3359/Ta4C3_loop/Ta.save/

     General routines

     Parallel routines

   This run was terminated on:   0: 8:33   7Apr2022

   JOB DONE.