     Program PWSCF v.6.8 starts on  6Apr2022 at 17:49:10

     R & G space division:  proc/nbgrp/npool/nimage =       2

     Reading input from Ta4C3.vcrelax.in

     Current dimensions of program PWSCF are:
     Max number of different atomic species (ntypx) = 10
     Max number of k-points (npk) =  40000
     Max angular momentum in pseudopotentials (lmaxx) =  4
     file Ta.pbesol-spfn-rrkjus_psl.1.0.0.UPF: wavefunction(s)  5S 5P renormalized

     Subspace diagonalization in iterative solution of the eigenvalue problem:
     a serial algorithm will be used

     Using Slab Decomposition

     bravais-lattice index     =            0
     lattice parameter (alat)  =       5.5500  a.u.
     unit-cell volume          =    1242.1942 (a.u.)^3
     number of atoms/cell      =            7
     number of atomic types    =            2
     number of electrons       =       120.00
     number of Kohn-Sham states=           72
     kinetic-energy cutoff     =      60.0000  Ry
     charge density cutoff     =     400.0000  Ry
     scf convergence threshold =      1.0E-12
     mixing beta               =       0.7000
     number of iterations used =            8  plain     mixing
     energy convergence thresh.=      1.0E-04
     force convergence thresh. =      1.0E-03
     press convergence thresh. =      5.0E-01
     Exchange-correlation= PBESOL
                           (   1   4  10   8   0   0   0)
     nstep                     =           50

     celldm(1)=   5.550000  celldm(2)=   0.000000  celldm(3)=   0.000000
     celldm(4)=   0.000000  celldm(5)=   0.000000  celldm(6)=   0.000000

     crystal axes: (cart. coord. in units of alat)
               a(1) = (   1.182549   0.000005   0.000000 )
               a(2) = (  -0.591270   1.024092   0.000000 )
               a(3) = (   0.000000   0.000000   6.000000 )

     reciprocal axes: (cart. coord. in units 2 pi/alat)
               b(1) = (  0.845629  0.488232  0.000000 )
               b(2) = ( -0.000005  0.976472  0.000000 )
               b(3) = (  0.000000  0.000000  0.166667 )

     PseudoPot. # 1 for Ta read from file:
     /shared/home/as3359/pseudo/Ta.pbesol-spfn-rrkjus_psl.1.0.0.UPF
     MD5 check sum: f099565ffaca9b150a52e9412a28e20b
     Pseudo is Ultrasoft + core correction, Zval = 27.0
     Generated using &quot;atomic&quot; code by A. Dal Corso  v.6.3
     Using radial grid of 1273 points,  8 beta functions with:
                l(1) =   0
                l(2) =   0
                l(3) =   1
                l(4) =   1
                l(5) =   2
                l(6) =   2
                l(7) =   3
                l(8) =   3
     Q(r) pseudized with 0 coefficients

     PseudoPot. # 2 for C  read from file:
     /shared/home/as3359/pseudo/C.pbesol-n-rrkjus_psl.1.0.0.UPF
     MD5 check sum: 05995be603a8a7c99da3dc4413f31573
     Pseudo is Ultrasoft + core correction, Zval =  4.0
     Generated using &quot;atomic&quot; code by A. Dal Corso  v.6.3MaX
     Using radial grid of 1073 points,  4 beta functions with:
                l(1) =   0
                l(2) =   0
                l(3) =   1
                l(4) =   1
     Q(r) pseudized with 0 coefficients

     atomic species   valence    mass     pseudopotential
        Ta            27.00   180.94788     Ta( 1.00)
        C              4.00    12.01070     C ( 1.00)

     No symmetry found

   Cartesian axes

     site n.     atom                  positions (alat units)
         1           Ta  tau(   1) = (   0.0000010   0.6827247   0.2387073  )
         2           C   tau(   2) = (   0.0000024   0.0000057   0.5346217  )
         3           Ta  tau(   3) = (   0.5912747   0.3413643   0.8567907  )
         4           C   tau(   4) = (   0.0000031   0.6827295   1.1864855  )
         5           Ta  tau(   5) = (   0.0000051   0.0000122   1.4464720  )
         6           C   tau(   6) = (   0.5912748   0.3413646   1.7116588  )
         7           Ta  tau(   7) = (   0.0000007   0.6827239   1.9398306  )

     number of k points=    74  Marzari-Vanderbilt smearing, width (Ry)=  0.0010
                       cart. coord. in units 2pi/alat
        k(    1) = (   0.0000000   0.0000000   0.0000000), wk =   0.0138889
        k(    2) = (  -0.0000004   0.0813727   0.0000000), wk =   0.0277778
        k(    3) = (  -0.0000008   0.1627454   0.0000000), wk =   0.0277778
        k(    4) = (  -0.0000011   0.2441180   0.0000000), wk =   0.0277778
        k(    5) = (  -0.0000015   0.3254907   0.0000000), wk =   0.0277778
        k(    6) = (  -0.0000019   0.4068634   0.0000000), wk =   0.0277778
        k(    7) = (   0.0000023  -0.4882361   0.0000000), wk =   0.0138889
        k(    8) = (   0.0704691   0.0406860   0.0000000), wk =   0.0277778
        k(    9) = (   0.0704687   0.1220587   0.0000000), wk =   0.0277778
        k(   10) = (   0.0704683   0.2034314   0.0000000), wk =   0.0277778
        k(   11) = (   0.0704679   0.2848041   0.0000000), wk =   0.0277778
        k(   12) = (   0.0704675   0.3661767   0.0000000), wk =   0.0277778
        k(   13) = (   0.0704672   0.4475494   0.0000000), wk =   0.0277778
        k(   14) = (   0.0704713  -0.4475501   0.0000000), wk =   0.0277778
        k(   15) = (   0.0704709  -0.3661774   0.0000000), wk =   0.0277778
        k(   16) = (   0.0704706  -0.2848047   0.0000000), wk =   0.0277778
        k(   17) = (   0.0704702  -0.2034320   0.0000000), wk =   0.0277778
        k(   18) = (   0.0704698  -0.1220593   0.0000000), wk =   0.0277778
        k(   19) = (   0.0704694  -0.0406867   0.0000000), wk =   0.0277778
        k(   20) = (   0.1409381   0.0813720   0.0000000), wk =   0.0277778
        k(   21) = (   0.1409377   0.1627447   0.0000000), wk =   0.0277778
        k(   22) = (   0.1409374   0.2441174   0.0000000), wk =   0.0277778
        k(   23) = (   0.1409370   0.3254901   0.0000000), wk =   0.0277778
        k(   24) = (   0.1409366   0.4068627   0.0000000), wk =   0.0277778
        k(   25) = (   0.1409362   0.4882354   0.0000000), wk =   0.0277778
        k(   26) = (   0.1409404  -0.4068641   0.0000000), wk =   0.0277778
        k(   27) = (   0.1409400  -0.3254914   0.0000000), wk =   0.0277778
        k(   28) = (   0.1409396  -0.2441187   0.0000000), wk =   0.0277778
        k(   29) = (   0.1409392  -0.1627460   0.0000000), wk =   0.0277778
        k(   30) = (   0.1409389  -0.0813733   0.0000000), wk =   0.0277778
        k(   31) = (   0.1409385  -0.0000007   0.0000000), wk =   0.0277778
        k(   32) = (   0.2114072   0.1220580   0.0000000), wk =   0.0277778
        k(   33) = (   0.2114068   0.2034307   0.0000000), wk =   0.0277778
        k(   34) = (   0.2114064   0.2848034   0.0000000), wk =   0.0277778
        k(   35) = (   0.2114060   0.3661761   0.0000000), wk =   0.0277778
        k(   36) = (   0.2114057   0.4475488   0.0000000), wk =   0.0277778
        k(   37) = (   0.2114053   0.5289214   0.0000000), wk =   0.0277778
        k(   38) = (   0.2114094  -0.3661780   0.0000000), wk =   0.0277778
        k(   39) = (   0.2114091  -0.2848054   0.0000000), wk =   0.0277778
        k(   40) = (   0.2114087  -0.2034327   0.0000000), wk =   0.0277778
        k(   41) = (   0.2114083  -0.1220600   0.0000000), wk =   0.0277778
        k(   42) = (   0.2114079  -0.0406873   0.0000000), wk =   0.0277778
        k(   43) = (   0.2114075   0.0406854   0.0000000), wk =   0.0277778
        k(   44) = (   0.2818762   0.1627441   0.0000000), wk =   0.0277778
        k(   45) = (   0.2818758   0.2441167   0.0000000), wk =   0.0277778
        k(   46) = (   0.2818755   0.3254894   0.0000000), wk =   0.0277778
        k(   47) = (   0.2818751   0.4068621   0.0000000), wk =   0.0277778
        k(   48) = (   0.2818747   0.4882348   0.0000000), wk =   0.0277778
        k(   49) = (   0.2818743   0.5696074   0.0000000), wk =   0.0277778
        k(   50) = (   0.2818785  -0.3254920   0.0000000), wk =   0.0277778
        k(   51) = (   0.2818781  -0.2441193   0.0000000), wk =   0.0277778
        k(   52) = (   0.2818777  -0.1627467   0.0000000), wk =   0.0277778
        k(   53) = (   0.2818773  -0.0813740   0.0000000), wk =   0.0277778
        k(   54) = (   0.2818770  -0.0000013   0.0000000), wk =   0.0277778
        k(   55) = (   0.2818766   0.0813714   0.0000000), wk =   0.0277778
        k(   56) = (   0.3523453   0.2034301   0.0000000), wk =   0.0277778
        k(   57) = (   0.3523449   0.2848027   0.0000000), wk =   0.0277778
        k(   58) = (   0.3523445   0.3661754   0.0000000), wk =   0.0277778
        k(   59) = (   0.3523441   0.4475481   0.0000000), wk =   0.0277778
        k(   60) = (   0.3523438   0.5289208   0.0000000), wk =   0.0277778
        k(   61) = (   0.3523434   0.6102935   0.0000000), wk =   0.0277778
        k(   62) = (   0.3523475  -0.2848060   0.0000000), wk =   0.0277778
        k(   63) = (   0.3523472  -0.2034333   0.0000000), wk =   0.0277778
        k(   64) = (   0.3523468  -0.1220607   0.0000000), wk =   0.0277778
        k(   65) = (   0.3523464  -0.0406880   0.0000000), wk =   0.0277778
        k(   66) = (   0.3523460   0.0406847   0.0000000), wk =   0.0277778
        k(   67) = (   0.3523456   0.1220574   0.0000000), wk =   0.0277778
        k(   68) = (  -0.4228143  -0.2441161   0.0000000), wk =   0.0138889
        k(   69) = (  -0.4228147  -0.1627434   0.0000000), wk =   0.0277778
        k(   70) = (  -0.4228151  -0.0813707   0.0000000), wk =   0.0277778
        k(   71) = (  -0.4228155   0.0000020   0.0000000), wk =   0.0277778
        k(   72) = (  -0.4228158   0.0813746   0.0000000), wk =   0.0277778
        k(   73) = (  -0.4228162   0.1627473   0.0000000), wk =   0.0277778
        k(   74) = (  -0.4228121  -0.7323522   0.0000000), wk =   0.0138889

     Check: negative core charge=   -0.000002

     Initial potential from superposition of free atoms

     starting charge  119.99679, renormalised to  120.00000

     negative rho (up, down):  4.641E-05 0.000E+00
     Starting wfcs are   80 randomized atomic wfcs

     Self-consistent Calculation

     iteration #  1     ecut=    60.00 Ry     beta= 0.70
     Davidson diagonalization with overlap
     ethr =  1.00E-02,  avg # of iterations =  2.1

     negative rho (up, down):  1.033E-05 0.000E+00

     total energy              =   -2753.34874288 Ry
     estimated scf accuracy    <       7.13133806 Ry

[...]

     End of self-consistent calculation

          k = 0.0000 0.0000 0.0000 (  9677 PWs)   bands (ev):

   -60.2591 -59.9540 -59.7407 -59.0974 -27.2482 -27.0213 -26.8267 -26.8266
   -26.7037 -26.7037 -26.4481 -26.3031 -26.3030 -25.6495 -25.6494 -25.5794
   -12.0180 -11.9916 -11.9916 -11.9616 -11.9616 -11.9327 -11.9052 -11.5926
   -11.5618 -11.5618 -11.5358 -11.5358 -11.5103 -11.4751 -11.4094 -11.3759
   -11.3759 -11.3672 -11.3672 -11.3648 -11.3350 -10.7794 -10.7348 -10.7348
   -10.7307 -10.7307 -10.7268 -10.6958  -6.7384  -4.5328  -2.1185   0.0192
     0.0194   0.1183   2.3974   2.3975   4.3266   4.3282   4.3285   5.3373
     5.3376   5.6909   7.2829   7.6352   7.6355   8.6119   9.1813  10.7583
    10.7923  10.7927  11.5486  11.6735  11.6736  11.9956  12.5309  13.4263

[...]
     c_bands:  4 eigenvalues not converged
     c_bands:  4 eigenvalues not converged
     c_bands:  5 eigenvalues not converged
     ethr =  1.00E-06,  avg # of iterations = 21.1
     Minimization algorithm failed to find Fermi energy: reverting to bisection
     Possible cause: smearing is larger than the electronic band-gap.

[...]

     iteration # 12     ecut=    60.00 Ry     beta= 0.70
     Davidson diagonalization with overlap
     c_bands:  1 eigenvalues not converged
     ethr =  4.52E-06,  avg # of iterations =  8.8
     Minimization algorithm failed to find Fermi energy: reverting to bisection
     Possible cause: smearing is larger than the electronic band-gap.

[...]

     WARNING: integrated charge=   119.99998161, expected=   120.00000000

[...]

     number of scf cycles    =  18
     number of bfgs steps    =  17

     enthalpy           old  =   -2759.1717701445 Ry
     enthalpy           new  =   -2759.1717992217 Ry

     CASE: enthalpy          _new < enthalpy          _old

     new trust radius        =       0.0042094054 bohr
     new conv_thr            =            1.0E-14 Ry

     new unit-cell volume =    983.18170 a.u.^3 (   145.69250 Ang^3 )
     density =      8.66014 g/cm^3

[...]

ATOMIC_POSITIONS (crystal)
Ta            0.3333310091        0.6666639694       -0.0269029980
C            -0.0000006861       -0.0000007950        0.0391217521
Ta            0.6666676137        0.3333344308        0.1129114019
C             0.3333327732        0.6666660249        0.1884924085
Ta           -0.0000007727       -0.0000008897        0.2639695769
C             0.6666677659        0.3333346028        0.3377411373
Ta            0.3333356300        0.6666693238        0.4037611653

     Writing output data file /scratch/as3359/Ta4C3_loop/Ta.save/
     NEW-OLD atomic charge density approx. for the potential

[...]

     negative rho (up, down):  5.009E-08 0.000E+00
     extrapolated charge  120.07496, renormalised to  120.00000

[...]

     negative rho (up, down):  4.638E-08 0.000E+00
          total   stress  (Ry/bohr**3)                   (kbar)     P=       -1.98
  -0.00000004   0.00000000  -0.00000000           -0.01        0.00       -0.00
   0.00000000  -0.00000005  -0.00000001            0.00       -0.01       -0.00
  -0.00000000  -0.00000001  -0.00004019           -0.00       -0.00       -5.91

     Energy error            =      5.8E-06 Ry
     Gradient error          =      8.2E-04 Ry/Bohr
     Cell gradient error     =      7.5E-03 kbar

     bfgs converged in  19 scf cycles and  18 bfgs steps
     (criteria: energy <  1.0E-04 Ry, force <  1.0E-03Ry/Bohr, cell <  5.0E-01kbar)

     End of BFGS Geometry Optimization

     Final enthalpy           =   -2759.1718049894 Ry

     File /scratch/as3359/Ta4C3_loop/Ta.bfgs deleted, as requested
Begin final coordinates
     new unit-cell volume =    983.18170 a.u.^3 (   145.69250 Ang^3 )
     density =      8.66014 g/cm^3

CELL_PARAMETERS (alat=  5.55000000)
   1.052048093  -0.000000930   0.000000000
  -0.526024852   0.911104547   0.000000000
   0.000000000   0.000000000   6.000000000

ATOMIC_POSITIONS (crystal)
Ta            0.3333310091        0.6666639694       -0.0269029980
C            -0.0000006861       -0.0000007950        0.0391217521
Ta            0.6666676137        0.3333344308        0.1129114019
C             0.3333327732        0.6666660249        0.1884924085
Ta           -0.0000007727       -0.0000008897        0.2639695769
C             0.6666677659        0.3333346028        0.3377411373
Ta            0.3333356300        0.6666693238        0.4037611653
End final coordinates

     Writing output data file /scratch/as3359/Ta4C3_loop/Ta.save/

     Final scf calculation at the relaxed structure.
     The G-vectors are recalculated for the final unit cell
     Results may differ from those at the preceding step.

     Using Slab Decomposition

     bravais-lattice index     =            0
     lattice parameter (alat)  =       5.5500  a.u.
     unit-cell volume          =     983.1817 (a.u.)^3
     number of atoms/cell      =            7
     number of atomic types    =            2
     number of electrons       =       120.00
     number of Kohn-Sham states=           72
     kinetic-energy cutoff     =      60.0000  Ry
     charge density cutoff     =     400.0000  Ry
     scf convergence threshold =      1.0E-14
     mixing beta               =       0.7000
     number of iterations used =            8  plain     mixing
     press convergence thresh. =      5.0E-01
     Exchange-correlation= PBESOL
                           (   1   4  10   8   0   0   0)

     celldm(1)=   5.550000  celldm(2)=   0.000000  celldm(3)=   0.000000
     celldm(4)=   0.000000  celldm(5)=   0.000000  celldm(6)=   0.000000

     crystal axes: (cart. coord. in units of alat)
               a(1) = (   1.052048  -0.000001   0.000000 )
               a(2) = (  -0.526025   0.911105   0.000000 )
               a(3) = (   0.000000   0.000000   6.000000 )

     reciprocal axes: (cart. coord. in units 2 pi/alat)
               b(1) = (  0.950527  0.548786  0.000000 )
               b(2) = (  0.000001  1.097569  0.000000 )
               b(3) = (  0.000000  0.000000  0.166667 )

     PseudoPot. # 1 for Ta read from file:
     /shared/home/as3359/pseudo/Ta.pbesol-spfn-rrkjus_psl.1.0.0.UPF
     MD5 check sum: f099565ffaca9b150a52e9412a28e20b
     Pseudo is Ultrasoft + core correction, Zval = 27.0
     Generated using &quot;atomic&quot; code by A. Dal Corso  v.6.3
     Using radial grid of 1273 points,  8 beta functions with:
                l(1) =   0
                l(2) =   0
                l(3) =   1
                l(4) =   1
                l(5) =   2
                l(6) =   2
                l(7) =   3
                l(8) =   3
     Q(r) pseudized with 0 coefficients

     PseudoPot. # 2 for C  read from file:
     /shared/home/as3359/pseudo/C.pbesol-n-rrkjus_psl.1.0.0.UPF
     MD5 check sum: 05995be603a8a7c99da3dc4413f31573
     Pseudo is Ultrasoft + core correction, Zval =  4.0
     Generated using &quot;atomic&quot; code by A. Dal Corso  v.6.3MaX
     Using radial grid of 1073 points,  4 beta functions with:
                l(1) =   0
                l(2) =   0
                l(3) =   1
                l(4) =   1
     Q(r) pseudized with 0 coefficients

     atomic species   valence    mass     pseudopotential
        Ta            27.00   180.94788     Ta( 1.00)
        C              4.00    12.01070     C ( 1.00)

     No symmetry found

   Cartesian axes

     site n.     atom                  positions (alat units)
         1           Ta  tau(   1) = (  -0.0000016   0.6074003  -0.1614180  )
         2           C   tau(   2) = (  -0.0000003  -0.0000007   0.2347305  )
         3           Ta  tau(   3) = (   0.5260242   0.3037019   0.6774684  )
         4           C   tau(   4) = (  -0.0000008   0.6074021   1.1309545  )
         5           Ta  tau(   5) = (  -0.0000003  -0.0000008   1.5838175  )
         6           C   tau(   6) = (   0.5260243   0.3037021   2.0264468  )
         7           Ta  tau(   7) = (   0.0000005   0.6074051   2.4225670  )

     number of k points=    74  Marzari-Vanderbilt smearing, width (Ry)=  0.0010
                       cart. coord. in units 2pi/alat
        k(    1) = (   0.0000000   0.0000000   0.0000000), wk =   0.0138889
        k(    2) = (   0.0000001   0.0914641   0.0000000), wk =   0.0277778
        k(    3) = (   0.0000002   0.1829282   0.0000000), wk =   0.0277778
        k(    4) = (   0.0000002   0.2743924   0.0000000), wk =   0.0277778
        k(    5) = (   0.0000003   0.3658565   0.0000000), wk =   0.0277778
        k(    6) = (   0.0000004   0.4573206   0.0000000), wk =   0.0277778
        k(    7) = (  -0.0000005  -0.5487847   0.0000000), wk =   0.0138889
        k(    8) = (   0.0792106   0.0457321   0.0000000), wk =   0.0277778
        k(    9) = (   0.0792107   0.1371963   0.0000000), wk =   0.0277778
        k(   10) = (   0.0792108   0.2286604   0.0000000), wk =   0.0277778
        k(   11) = (   0.0792109   0.3201245   0.0000000), wk =   0.0277778
        k(   12) = (   0.0792109   0.4115886   0.0000000), wk =   0.0277778
        k(   13) = (   0.0792110   0.5030527   0.0000000), wk =   0.0277778
        k(   14) = (   0.0792101  -0.5030526   0.0000000), wk =   0.0277778
        k(   15) = (   0.0792102  -0.4115885   0.0000000), wk =   0.0277778
        k(   16) = (   0.0792103  -0.3201244   0.0000000), wk =   0.0277778
        k(   17) = (   0.0792104  -0.2286602   0.0000000), wk =   0.0277778
        k(   18) = (   0.0792105  -0.1371961   0.0000000), wk =   0.0277778
        k(   19) = (   0.0792105  -0.0457320   0.0000000), wk =   0.0277778
        k(   20) = (   0.1584212   0.0914643   0.0000000), wk =   0.0277778
        k(   21) = (   0.1584213   0.1829284   0.0000000), wk =   0.0277778
        k(   22) = (   0.1584214   0.2743925   0.0000000), wk =   0.0277778
        k(   23) = (   0.1584215   0.3658566   0.0000000), wk =   0.0277778
        k(   24) = (   0.1584216   0.4573207   0.0000000), wk =   0.0277778
        k(   25) = (   0.1584216   0.5487849   0.0000000), wk =   0.0277778
        k(   26) = (   0.1584207  -0.4573205   0.0000000), wk =   0.0277778
        k(   27) = (   0.1584208  -0.3658563   0.0000000), wk =   0.0277778
        k(   28) = (   0.1584209  -0.2743922   0.0000000), wk =   0.0277778
        k(   29) = (   0.1584210  -0.1829281   0.0000000), wk =   0.0277778
        k(   30) = (   0.1584211  -0.0914640   0.0000000), wk =   0.0277778
        k(   31) = (   0.1584211   0.0000001   0.0000000), wk =   0.0277778
        k(   32) = (   0.2376318   0.1371964   0.0000000), wk =   0.0277778
        k(   33) = (   0.2376319   0.2286605   0.0000000), wk =   0.0277778
        k(   34) = (   0.2376320   0.3201246   0.0000000), wk =   0.0277778
        k(   35) = (   0.2376321   0.4115888   0.0000000), wk =   0.0277778
        k(   36) = (   0.2376322   0.5030529   0.0000000), wk =   0.0277778
        k(   37) = (   0.2376322   0.5945170   0.0000000), wk =   0.0277778
        k(   38) = (   0.2376314  -0.4115883   0.0000000), wk =   0.0277778
        k(   39) = (   0.2376314  -0.3201242   0.0000000), wk =   0.0277778
        k(   40) = (   0.2376315  -0.2286601   0.0000000), wk =   0.0277778
        k(   41) = (   0.2376316  -0.1371960   0.0000000), wk =   0.0277778
        k(   42) = (   0.2376317  -0.0457319   0.0000000), wk =   0.0277778
        k(   43) = (   0.2376318   0.0457323   0.0000000), wk =   0.0277778
        k(   44) = (   0.3168425   0.1829285   0.0000000), wk =   0.0277778
        k(   45) = (   0.3168425   0.2743926   0.0000000), wk =   0.0277778
        k(   46) = (   0.3168426   0.3658568   0.0000000), wk =   0.0277778
        k(   47) = (   0.3168427   0.4573209   0.0000000), wk =   0.0277778
        k(   48) = (   0.3168428   0.5487850   0.0000000), wk =   0.0277778
        k(   49) = (   0.3168429   0.6402491   0.0000000), wk =   0.0277778
        k(   50) = (   0.3168420  -0.3658562   0.0000000), wk =   0.0277778
        k(   51) = (   0.3168421  -0.2743921   0.0000000), wk =   0.0277778
        k(   52) = (   0.3168421  -0.1829280   0.0000000), wk =   0.0277778
        k(   53) = (   0.3168422  -0.0914638   0.0000000), wk =   0.0277778
        k(   54) = (   0.3168423   0.0000003   0.0000000), wk =   0.0277778
        k(   55) = (   0.3168424   0.0914644   0.0000000), wk =   0.0277778
        k(   56) = (   0.3960531   0.2286607   0.0000000), wk =   0.0277778
        k(   57) = (   0.3960532   0.3201248   0.0000000), wk =   0.0277778
        k(   58) = (   0.3960532   0.4115889   0.0000000), wk =   0.0277778
        k(   59) = (   0.3960533   0.5030530   0.0000000), wk =   0.0277778
        k(   60) = (   0.3960534   0.5945171   0.0000000), wk =   0.0277778
        k(   61) = (   0.3960535   0.6859813   0.0000000), wk =   0.0277778
        k(   62) = (   0.3960526  -0.3201241   0.0000000), wk =   0.0277778
        k(   63) = (   0.3960527  -0.2286600   0.0000000), wk =   0.0277778
        k(   64) = (   0.3960527  -0.1371958   0.0000000), wk =   0.0277778
        k(   65) = (   0.3960528  -0.0457317   0.0000000), wk =   0.0277778
        k(   66) = (   0.3960529   0.0457324   0.0000000), wk =   0.0277778
        k(   67) = (   0.3960530   0.1371965   0.0000000), wk =   0.0277778
        k(   68) = (  -0.4752637  -0.2743928   0.0000000), wk =   0.0138889
        k(   69) = (  -0.4752636  -0.1829287   0.0000000), wk =   0.0277778
        k(   70) = (  -0.4752635  -0.0914645   0.0000000), wk =   0.0277778
        k(   71) = (  -0.4752634  -0.0000004   0.0000000), wk =   0.0277778
        k(   72) = (  -0.4752634   0.0914637   0.0000000), wk =   0.0277778
        k(   73) = (  -0.4752633   0.1829278   0.0000000), wk =   0.0277778
        k(   74) = (  -0.4752642  -0.8231775   0.0000000), wk =   0.0138889

     Check: negative core charge=   -0.000002

     Initial potential from superposition of free atoms

     starting charge  119.99679, renormalised to  120.00000

     negative rho (up, down):  1.014E-08 0.000E+00
     Starting wfcs are   80 randomized atomic wfcs

     Self-consistent Calculation

[...]

     negative rho (up, down):  2.309E-06 0.000E+00

[...]

     iteration #  9     ecut=    60.00 Ry     beta= 0.70
     Davidson diagonalization with overlap
     ethr =  9.03E-05,  avg # of iterations =  1.4
     Minimization algorithm failed to find Fermi energy: reverting to bisection
     Possible cause: smearing is larger than the electronic band-gap.

[...]

     iteration # 15     ecut=    60.00 Ry     beta= 0.70
     Davidson diagonalization with overlap
     c_bands:  1 eigenvalues not converged
     c_bands:  1 eigenvalues not converged
     ethr =  3.42E-06,  avg # of iterations =  3.1

[...]

     total energy              =   -2759.16326531 Ry
     estimated scf accuracy    <          5.2E-13 Ry

     iteration # 35     ecut=    60.00 Ry     beta= 0.70
     Davidson diagonalization with overlap
     ethr =  1.00E-13,  avg # of iterations =  1.0

     End of self-consistent calculation

[...]

          k = 0.3961 0.1372 0.0000 (  7716 PWs)   bands (ev):

[...]

          k =-0.4753-0.8232 0.0000 (  7696 PWs)   bands (ev):

   -57.4952 -57.4886 -56.9938 -56.9930 -24.5137 -24.4593 -24.1625 -24.0772
   -23.9823 -23.9133 -23.7453 -23.7441 -23.6195 -23.6018 -23.3225 -23.3214
    -9.2152  -9.1984  -9.1983  -9.1963  -9.1960  -9.1908  -9.1821  -9.1774
    -9.1768  -9.1758  -9.1744  -9.1738  -9.1712  -9.1658  -8.7582  -8.7574
    -8.7533  -8.7525  -8.7398  -8.7390  -8.7165  -8.7158  -8.6982  -8.6975
    -8.6765  -8.6757  -8.6628  -8.6621  -1.3488  -0.6847   0.4464   2.8051
     4.1304   5.6160   5.9710   5.9918   6.2195   6.8170   6.8548   6.9550
     8.5543   9.9505  11.1705  11.2150  12.2990  13.5132  13.5960  13.7591
    14.0290  14.3908  14.8055  15.2972  15.3308  15.3388  15.6619  15.7665

     the Fermi energy is    11.0505 ev

!    total energy              =   -2759.16326531 Ry
     estimated scf accuracy    <          8.4E-17 Ry
     smearing contrib. (-TS)   =      -0.00001214 Ry
     internal energy E=F+TS    =   -2759.16325318 Ry

     The total energy is F=E-TS. E is the sum of the following terms:
     one-electron contribution =   -8664.02049696 Ry
     hartree contribution      =    4438.01232575 Ry
     xc contribution           =    -282.39110512 Ry
     ewald contribution        =    1749.23602316 Ry

     convergence has been achieved in  35 iterations

     Forces acting on atoms (cartesian axes, Ry/au):

     atom    1 type  1   force =     0.00000062    0.00000151   -0.00023880
     atom    2 type  2   force =    -0.00000040   -0.00000095    0.00044040
     atom    3 type  1   force =    -0.00000077   -0.00000185    0.00020502
     atom    4 type  2   force =     0.00000051    0.00000119   -0.00082238
     atom    5 type  1   force =     0.00000047    0.00000112    0.00017462
     atom    6 type  2   force =     0.00000001    0.00000003   -0.00026132
     atom    7 type  1   force =    -0.00000043   -0.00000105    0.00050245

     Total force =     0.001149     Total SCF correction =     0.000000

     Computing stress (Cartesian axis) and pressure

          total   stress  (Ry/bohr**3)                   (kbar)     P=      -10.18
  -0.00006455   0.00000000  -0.00000000           -9.50        0.00       -0.00
   0.00000000  -0.00006456  -0.00000001            0.00       -9.50       -0.00
  -0.00000000  -0.00000001  -0.00007844           -0.00       -0.00      -11.54

     Writing output data file /scratch/as3359/Ta4C3_loop/Ta.save/

     General routines

     Parallel routines

   This run was terminated on:  23:15: 8   6Apr2022

   JOB DONE.