     Program PWSCF v.6.8 starts on  6Apr2022 at 23:15: 8

     R & G space division:  proc/nbgrp/npool/nimage =       2

     Reading input from Ta4C3.relax.in
Warning: card  &CELL ignored
Warning: card     CELL_DYNAMICS='BFGS', CELL_DOFREE ='2DXY' ignored
Warning: card  / ignored
Warning: card  O   15.9994  O.PBESOL-N-RRKJUS_PSL.1.0.0.UPF ignored

     Current dimensions of program PWSCF are:
     Max number of different atomic species (ntypx) = 10
     Max number of k-points (npk) =  40000
     Max angular momentum in pseudopotentials (lmaxx) =  4
     file Ta.pbesol-spfn-rrkjus_psl.1.0.0.UPF: wavefunction(s)  5S 5P renormalized

     Subspace diagonalization in iterative solution of the eigenvalue problem:
     a serial algorithm will be used

     Using Slab Decomposition

     bravais-lattice index     =            0
     lattice parameter (alat)  =       5.5500  a.u.
     unit-cell volume          =     983.1817 (a.u.)^3
     number of atoms/cell      =            7
     number of atomic types    =            2
     number of electrons       =       120.00
     number of Kohn-Sham states=           72
     kinetic-energy cutoff     =      60.0000  Ry
     charge density cutoff     =     400.0000  Ry
     scf convergence threshold =      1.0E-12
     mixing beta               =       0.7000
     number of iterations used =            8  plain     mixing
     energy convergence thresh.=      1.0E-04
     force convergence thresh. =      1.0E-03
     Exchange-correlation= PBESOL
                           (   1   4  10   8   0   0   0)
     nstep                     =           50

     celldm(1)=   5.550000  celldm(2)=   0.000000  celldm(3)=   0.000000
     celldm(4)=   0.000000  celldm(5)=   0.000000  celldm(6)=   0.000000

     crystal axes: (cart. coord. in units of alat)
               a(1) = (   1.052048  -0.000001   0.000000 )
               a(2) = (  -0.526025   0.911105   0.000000 )
               a(3) = (   0.000000   0.000000   6.000000 )

     reciprocal axes: (cart. coord. in units 2 pi/alat)
               b(1) = (  0.950527  0.548786  0.000000 )
               b(2) = (  0.000001  1.097569  0.000000 )
               b(3) = (  0.000000  0.000000  0.166667 )

     PseudoPot. # 1 for Ta read from file:
     /shared/home/as3359/pseudo/Ta.pbesol-spfn-rrkjus_psl.1.0.0.UPF
     MD5 check sum: f099565ffaca9b150a52e9412a28e20b
     Pseudo is Ultrasoft + core correction, Zval = 27.0
     Generated using &quot;atomic&quot; code by A. Dal Corso  v.6.3
     Using radial grid of 1273 points,  8 beta functions with:
                l(1) =   0
                l(2) =   0
                l(3) =   1
                l(4) =   1
                l(5) =   2
                l(6) =   2
                l(7) =   3
                l(8) =   3
     Q(r) pseudized with 0 coefficients

     PseudoPot. # 2 for C  read from file:
     /shared/home/as3359/pseudo/C.pbesol-n-rrkjus_psl.1.0.0.UPF
     MD5 check sum: 05995be603a8a7c99da3dc4413f31573
     Pseudo is Ultrasoft + core correction, Zval =  4.0
     Generated using &quot;atomic&quot; code by A. Dal Corso  v.6.3MaX
     Using radial grid of 1073 points,  4 beta functions with:
                l(1) =   0
                l(2) =   0
                l(3) =   1
                l(4) =   1
     Q(r) pseudized with 0 coefficients

     atomic species   valence    mass     pseudopotential
        Ta            27.00   180.94788     Ta( 1.00)
        C              4.00    12.01070     C ( 1.00)

     No symmetry found

   Cartesian axes

     site n.     atom                  positions (alat units)
         1           Ta  tau(   1) = (  -0.0000016   0.6074003  -0.1614180  )
         2           C   tau(   2) = (  -0.0000003  -0.0000007   0.2347305  )
         3           Ta  tau(   3) = (   0.5260242   0.3037019   0.6774684  )
         4           C   tau(   4) = (  -0.0000008   0.6074021   1.1309545  )
         5           Ta  tau(   5) = (  -0.0000003  -0.0000008   1.5838175  )
         6           C   tau(   6) = (   0.5260243   0.3037021   2.0264468  )
         7           Ta  tau(   7) = (   0.0000005   0.6074051   2.4225670  )

     number of k points=    74  Marzari-Vanderbilt smearing, width (Ry)=  0.0010
                       cart. coord. in units 2pi/alat
        k(    1) = (   0.0000000   0.0000000   0.0000000), wk =   0.0138889
        k(    2) = (   0.0000001   0.0914641   0.0000000), wk =   0.0277778
        k(    3) = (   0.0000002   0.1829282   0.0000000), wk =   0.0277778
        k(    4) = (   0.0000002   0.2743924   0.0000000), wk =   0.0277778
        k(    5) = (   0.0000003   0.3658565   0.0000000), wk =   0.0277778
        k(    6) = (   0.0000004   0.4573206   0.0000000), wk =   0.0277778
        k(    7) = (  -0.0000005  -0.5487847   0.0000000), wk =   0.0138889
        k(    8) = (   0.0792106   0.0457321   0.0000000), wk =   0.0277778
        k(    9) = (   0.0792107   0.1371963   0.0000000), wk =   0.0277778
        k(   10) = (   0.0792108   0.2286604   0.0000000), wk =   0.0277778
        k(   11) = (   0.0792109   0.3201245   0.0000000), wk =   0.0277778
        k(   12) = (   0.0792109   0.4115886   0.0000000), wk =   0.0277778
        k(   13) = (   0.0792110   0.5030527   0.0000000), wk =   0.0277778
        k(   14) = (   0.0792101  -0.5030526   0.0000000), wk =   0.0277778
        k(   15) = (   0.0792102  -0.4115885   0.0000000), wk =   0.0277778
        k(   16) = (   0.0792103  -0.3201244   0.0000000), wk =   0.0277778
        k(   17) = (   0.0792104  -0.2286602   0.0000000), wk =   0.0277778
        k(   18) = (   0.0792105  -0.1371961   0.0000000), wk =   0.0277778
        k(   19) = (   0.0792105  -0.0457320   0.0000000), wk =   0.0277778
        k(   20) = (   0.1584212   0.0914643   0.0000000), wk =   0.0277778
        k(   21) = (   0.1584213   0.1829284   0.0000000), wk =   0.0277778
        k(   22) = (   0.1584214   0.2743925   0.0000000), wk =   0.0277778
        k(   23) = (   0.1584215   0.3658566   0.0000000), wk =   0.0277778
        k(   24) = (   0.1584216   0.4573207   0.0000000), wk =   0.0277778
        k(   25) = (   0.1584216   0.5487849   0.0000000), wk =   0.0277778
        k(   26) = (   0.1584207  -0.4573205   0.0000000), wk =   0.0277778
        k(   27) = (   0.1584208  -0.3658563   0.0000000), wk =   0.0277778
        k(   28) = (   0.1584209  -0.2743922   0.0000000), wk =   0.0277778
        k(   29) = (   0.1584210  -0.1829281   0.0000000), wk =   0.0277778
        k(   30) = (   0.1584211  -0.0914640   0.0000000), wk =   0.0277778
        k(   31) = (   0.1584211   0.0000001   0.0000000), wk =   0.0277778
        k(   32) = (   0.2376318   0.1371964   0.0000000), wk =   0.0277778
        k(   33) = (   0.2376319   0.2286605   0.0000000), wk =   0.0277778
        k(   34) = (   0.2376320   0.3201246   0.0000000), wk =   0.0277778
        k(   35) = (   0.2376321   0.4115888   0.0000000), wk =   0.0277778
        k(   36) = (   0.2376322   0.5030529   0.0000000), wk =   0.0277778
        k(   37) = (   0.2376322   0.5945170   0.0000000), wk =   0.0277778
        k(   38) = (   0.2376314  -0.4115883   0.0000000), wk =   0.0277778
        k(   39) = (   0.2376314  -0.3201242   0.0000000), wk =   0.0277778
        k(   40) = (   0.2376315  -0.2286601   0.0000000), wk =   0.0277778
        k(   41) = (   0.2376316  -0.1371960   0.0000000), wk =   0.0277778
        k(   42) = (   0.2376317  -0.0457319   0.0000000), wk =   0.0277778
        k(   43) = (   0.2376318   0.0457323   0.0000000), wk =   0.0277778
        k(   44) = (   0.3168425   0.1829285   0.0000000), wk =   0.0277778
        k(   45) = (   0.3168425   0.2743926   0.0000000), wk =   0.0277778
        k(   46) = (   0.3168426   0.3658568   0.0000000), wk =   0.0277778
        k(   47) = (   0.3168427   0.4573209   0.0000000), wk =   0.0277778
        k(   48) = (   0.3168428   0.5487850   0.0000000), wk =   0.0277778
        k(   49) = (   0.3168429   0.6402491   0.0000000), wk =   0.0277778
        k(   50) = (   0.3168420  -0.3658562   0.0000000), wk =   0.0277778
        k(   51) = (   0.3168421  -0.2743921   0.0000000), wk =   0.0277778
        k(   52) = (   0.3168421  -0.1829280   0.0000000), wk =   0.0277778
        k(   53) = (   0.3168422  -0.0914638   0.0000000), wk =   0.0277778
        k(   54) = (   0.3168423   0.0000003   0.0000000), wk =   0.0277778
        k(   55) = (   0.3168424   0.0914644   0.0000000), wk =   0.0277778
        k(   56) = (   0.3960531   0.2286607   0.0000000), wk =   0.0277778
        k(   57) = (   0.3960532   0.3201248   0.0000000), wk =   0.0277778
        k(   58) = (   0.3960532   0.4115889   0.0000000), wk =   0.0277778
        k(   59) = (   0.3960533   0.5030530   0.0000000), wk =   0.0277778
        k(   60) = (   0.3960534   0.5945171   0.0000000), wk =   0.0277778
        k(   61) = (   0.3960535   0.6859813   0.0000000), wk =   0.0277778
        k(   62) = (   0.3960526  -0.3201241   0.0000000), wk =   0.0277778
        k(   63) = (   0.3960527  -0.2286600   0.0000000), wk =   0.0277778
        k(   64) = (   0.3960527  -0.1371958   0.0000000), wk =   0.0277778
        k(   65) = (   0.3960528  -0.0457317   0.0000000), wk =   0.0277778
        k(   66) = (   0.3960529   0.0457324   0.0000000), wk =   0.0277778
        k(   67) = (   0.3960530   0.1371965   0.0000000), wk =   0.0277778
        k(   68) = (  -0.4752637  -0.2743928   0.0000000), wk =   0.0138889
        k(   69) = (  -0.4752636  -0.1829287   0.0000000), wk =   0.0277778
        k(   70) = (  -0.4752635  -0.0914645   0.0000000), wk =   0.0277778
        k(   71) = (  -0.4752634  -0.0000004   0.0000000), wk =   0.0277778
        k(   72) = (  -0.4752634   0.0914637   0.0000000), wk =   0.0277778
        k(   73) = (  -0.4752633   0.1829278   0.0000000), wk =   0.0277778
        k(   74) = (  -0.4752642  -0.8231775   0.0000000), wk =   0.0138889

     Check: negative core charge=   -0.000002

     Initial potential from superposition of free atoms

     starting charge  119.99679, renormalised to  120.00000

     negative rho (up, down):  1.014E-08 0.000E+00
     Starting wfcs are   80 randomized atomic wfcs

     Self-consistent Calculation

     iteration #  1     ecut=    60.00 Ry     beta= 0.70
     Davidson diagonalization with overlap
     ethr =  1.00E-02,  avg # of iterations =  2.2

     negative rho (up, down):  3.250E-08 0.000E+00

     total energy              =   -2756.60779646 Ry
     estimated scf accuracy    <       3.73923627 Ry

[...]

     iteration # 15     ecut=    60.00 Ry     beta= 0.70
     Davidson diagonalization with overlap
     c_bands:  1 eigenvalues not converged
     ethr =  5.68E-06,  avg # of iterations =  2.3

[...]

     iteration # 16     ecut=    60.00 Ry     beta= 0.70
     Davidson diagonalization with overlap
     c_bands:  1 eigenvalues not converged
     ethr =  5.68E-06,  avg # of iterations =  1.3

[...]

     total energy              =   -2759.16326531 Ry
     estimated scf accuracy    <          1.4E-12 Ry

     iteration # 29     ecut=    60.00 Ry     beta= 0.70
     Davidson diagonalization with overlap
     ethr =  1.00E-13,  avg # of iterations =  1.0

     End of self-consistent calculation

          k = 0.0000 0.0000 0.0000 (  7661 PWs)   bands (ev):

   -57.5423 -57.5235 -57.0319 -57.0312 -24.4358 -24.1771 -23.8049 -23.8049
   -23.7772 -23.7772 -23.6647 -23.5988 -23.1826 -23.1826 -23.1819 -23.1819
    -9.2216  -9.2156  -9.2014  -9.2008  -9.2008  -9.1912  -9.1912  -9.1891
    -9.1771  -9.1771  -9.1680  -9.1680  -9.1555  -9.1531  -8.7746  -8.7738
    -8.7335  -8.7335  -8.7327  -8.7327  -8.7147  -8.7147  -8.7139  -8.7139
    -8.7000  -8.6993  -8.6420  -8.6412  -3.2840  -2.1301  -0.3713   2.7735
     4.6454   6.0485   6.0486   6.8010   6.8010   7.4244   8.7889   8.7889
     9.4662  10.2452  10.2453  10.2930  10.3582  11.4196  11.4197  12.0922
    12.2145  12.2146  13.2670  13.2671  13.6357  13.9588  13.9589  14.5444

[...]

          k =-0.0000-0.5488 0.0000 (  7696 PWs)   bands (ev):

[...]

          k = 0.3961 0.1372 0.0000 (  7716 PWs)   bands (ev):

[...]

          k =-0.4753-0.8232 0.0000 (  7696 PWs)   bands (ev):

   -57.4952 -57.4886 -56.9938 -56.9930 -24.5137 -24.4593 -24.1625 -24.0772
   -23.9823 -23.9133 -23.7453 -23.7441 -23.6195 -23.6018 -23.3225 -23.3214
    -9.2152  -9.1984  -9.1983  -9.1963  -9.1960  -9.1908  -9.1821  -9.1774
    -9.1768  -9.1758  -9.1744  -9.1738  -9.1712  -9.1658  -8.7582  -8.7574
    -8.7533  -8.7525  -8.7398  -8.7390  -8.7165  -8.7158  -8.6982  -8.6975
    -8.6765  -8.6757  -8.6628  -8.6621  -1.3488  -0.6847   0.4464   2.8051
     4.1304   5.6160   5.9710   5.9918   6.2195   6.8170   6.8548   6.9550
     8.5543   9.9505  11.1705  11.2150  12.2990  13.5132  13.5960  13.7591
    14.0290  14.3908  14.8055  15.2972  15.3308  15.3388  15.6619  15.7665

     the Fermi energy is    11.0505 ev

!    total energy              =   -2759.16326531 Ry
     estimated scf accuracy    <          7.4E-13 Ry
     smearing contrib. (-TS)   =      -0.00001214 Ry
     internal energy E=F+TS    =   -2759.16325318 Ry

     The total energy is F=E-TS. E is the sum of the following terms:
     one-electron contribution =   -8664.02028872 Ry
     hartree contribution      =    4438.01220893 Ry
     xc contribution           =    -282.39110497 Ry
     ewald contribution        =    1749.23593158 Ry

     convergence has been achieved in  29 iterations

     Forces acting on atoms (cartesian axes, Ry/au):

     atom    1 type  1   force =     0.00000067    0.00000149   -0.00023780
     atom    2 type  2   force =    -0.00000045   -0.00000096    0.00043975
     atom    3 type  1   force =    -0.00000078   -0.00000187    0.00020695
     atom    4 type  2   force =     0.00000056    0.00000127   -0.00082312
     atom    5 type  1   force =     0.00000042    0.00000113    0.00017663
     atom    6 type  2   force =     0.00000000   -0.00000012   -0.00026188
     atom    7 type  1   force =    -0.00000042   -0.00000095    0.00049948

     Total force =     0.001149     Total SCF correction =     0.000010

     Computing stress (Cartesian axis) and pressure

          total   stress  (Ry/bohr**3)                   (kbar)     P=      -10.18
  -0.00006456   0.00000000  -0.00000000           -9.50        0.00       -0.00
   0.00000000  -0.00006457  -0.00000001            0.00       -9.50       -0.00
  -0.00000000  -0.00000001  -0.00007845           -0.00       -0.00      -11.54

     BFGS Geometry Optimization
     Energy error            =      0.0E+00 Ry
     Gradient error          =      8.2E-04 Ry/Bohr

     bfgs converged in   1 scf cycles and   0 bfgs steps
     (criteria: energy <  1.0E-04 Ry, force <  1.0E-03 Ry/Bohr)

     End of BFGS Geometry Optimization

     Final energy             =   -2759.1632653146 Ry
Begin final coordinates

ATOMIC_POSITIONS (alat)
Ta           -0.0000016000        0.6074003000       -0.1614180000
C            -0.0000003000       -0.0000007000        0.2347305000
Ta            0.5260242000        0.3037019000        0.6774684000
C            -0.0000008000        0.6074021000        1.1309545000
Ta           -0.0000003000       -0.0000008000        1.5838175000
C             0.5260243000        0.3037021000        2.0264468000
Ta            0.0000005000        0.6074051000        2.4225670000
End final coordinates

     Writing output data file /scratch/as3359/Ta4C3_loop/Ta.save/

     General routines

     Parallel routines

   This run was terminated on:  23:23:32   6Apr2022

   JOB DONE.