     Program PWSCF v.6.8 starts on  6Apr2022 at 21:54:35

     R & G space division:  proc/nbgrp/npool/nimage =       2

     Reading input from Ta2CF2.relax.in
Warning: card  &CELL ignored
Warning: card     CELL_DYNAMICS='BFGS', CELL_DOFREE ='2DXY' ignored
Warning: card  / ignored

     Current dimensions of program PWSCF are:
     Max number of different atomic species (ntypx) = 10
     Max number of k-points (npk) =  40000
     Max angular momentum in pseudopotentials (lmaxx) =  4
     file Ta.pbesol-spfn-rrkjus_psl.1.0.0.UPF: wavefunction(s)  5S 5P renormalized
     file F.pbesol-n-rrkjus_psl.1.0.0.UPF: wavefunction(s)  2S renormalized
     Message from routine setup:
     using ibrav=0 with symmetry is DISCOURAGED, use correct ibrav instead

     Subspace diagonalization in iterative solution of the eigenvalue problem:
     a serial algorithm will be used

     Using Slab Decomposition

     bravais-lattice index     =            0
     lattice parameter (alat)  =       5.8997  a.u.
     unit-cell volume          =     954.1768 (a.u.)^3
     number of atoms/cell      =            5
     number of atomic types    =            3
     number of electrons       =        72.00
     number of Kohn-Sham states=           36
     kinetic-energy cutoff     =      60.0000  Ry
     charge density cutoff     =     300.0000  Ry
     scf convergence threshold =      1.0E-12
     mixing beta               =       0.7000
     number of iterations used =            8  plain     mixing
     energy convergence thresh.=      1.0E-04
     force convergence thresh. =      1.0E-03
     Exchange-correlation= PBESOL
                           (   1   4  10   8   0   0   0)
     nstep                     =           50

     celldm(1)=   5.899700  celldm(2)=   0.000000  celldm(3)=   0.000000
     celldm(4)=   0.000000  celldm(5)=   0.000000  celldm(6)=   0.000000

     crystal axes: (cart. coord. in units of alat)
               a(1) = (   0.945646   0.000000   0.000000 )
               a(2) = (  -0.472823   0.818953   0.000000 )
               a(3) = (   0.000000   0.000000   6.000000 )

     reciprocal axes: (cart. coord. in units 2 pi/alat)
               b(1) = (  1.057478  0.610535  0.000000 )
               b(2) = (  0.000000  1.221071  0.000000 )
               b(3) = (  0.000000  0.000000  0.166667 )

     PseudoPot. # 1 for Ta read from file:
     /shared/home/as3359/pseudo/Ta.pbesol-spfn-rrkjus_psl.1.0.0.UPF
     MD5 check sum: f099565ffaca9b150a52e9412a28e20b
     Pseudo is Ultrasoft + core correction, Zval = 27.0
     Generated using &quot;atomic&quot; code by A. Dal Corso  v.6.3
     Using radial grid of 1273 points,  8 beta functions with:
                l(1) =   0
                l(2) =   0
                l(3) =   1
                l(4) =   1
                l(5) =   2
                l(6) =   2
                l(7) =   3
                l(8) =   3
     Q(r) pseudized with 0 coefficients

     PseudoPot. # 2 for C  read from file:
     /shared/home/as3359/pseudo/C.pbesol-n-rrkjus_psl.1.0.0.UPF
     MD5 check sum: 05995be603a8a7c99da3dc4413f31573
     Pseudo is Ultrasoft + core correction, Zval =  4.0
     Generated using &quot;atomic&quot; code by A. Dal Corso  v.6.3MaX
     Using radial grid of 1073 points,  4 beta functions with:
                l(1) =   0
                l(2) =   0
                l(3) =   1
                l(4) =   1
     Q(r) pseudized with 0 coefficients

     PseudoPot. # 3 for F  read from file:
     /shared/home/as3359/pseudo/F.pbesol-n-rrkjus_psl.1.0.0.UPF
     MD5 check sum: 56b7518b93d9f54031eb04610776f7c7
     Pseudo is Ultrasoft + core correction, Zval =  7.0
     Generated using &quot;atomic&quot; code by A. Dal Corso  v.6.3MaX
     Using radial grid of 1105 points,  4 beta functions with:
                l(1) =   0
                l(2) =   0
                l(3) =   1
                l(4) =   1
     Q(r) pseudized with 0 coefficients

     atomic species   valence    mass     pseudopotential
        Ta            27.00   180.94788     Ta( 1.00)
        C              4.00    12.01070     C ( 1.00)
        F              7.00    18.99840     F ( 1.00)

      6 Sym. Ops. (no inversion) found

   Cartesian axes

     site n.     atom                  positions (alat units)
         1           Ta  tau(   1) = (   0.0000000   0.5459690   0.0508667  )
         2           C   tau(   2) = (   0.0000000   0.0000000   0.4857922  )
         3           Ta  tau(   3) = (   0.4728230   0.2729845   0.9208108  )
         4           F   tau(   4) = (   0.0000000   0.0000000   1.3760875  )
         5           F   tau(   5) = (   0.0000000   0.0000000  -0.4043509  )

     number of k points=    19
                       cart. coord. in units 2pi/alat
        k(    1) = (   0.0000000   0.0000000   0.0000000), wk =   0.0138889
        k(    2) = (   0.0000000   0.1017559   0.0000000), wk =   0.0833333
        k(    3) = (   0.0000000   0.2035118   0.0000000), wk =   0.0833333
        k(    4) = (   0.0000000   0.3052676   0.0000000), wk =   0.0833333
        k(    5) = (   0.0000000   0.4070235   0.0000000), wk =   0.0833333
        k(    6) = (   0.0000000   0.5087794   0.0000000), wk =   0.0833333
        k(    7) = (   0.0000000  -0.6105353   0.0000000), wk =   0.0416667
        k(    8) = (   0.0881232   0.1526338   0.0000000), wk =   0.0833333
        k(    9) = (   0.0881232   0.2543897   0.0000000), wk =   0.1666667
        k(   10) = (   0.0881232   0.3561456   0.0000000), wk =   0.1666667
        k(   11) = (   0.0881232   0.4579015   0.0000000), wk =   0.1666667
        k(   12) = (   0.0881232   0.5596573   0.0000000), wk =   0.1666667
        k(   13) = (   0.1762464   0.3052676   0.0000000), wk =   0.0833333
        k(   14) = (   0.1762464   0.4070235   0.0000000), wk =   0.1666667
        k(   15) = (   0.1762464   0.5087794   0.0000000), wk =   0.1666667
        k(   16) = (   0.1762464   0.6105353   0.0000000), wk =   0.0833333
        k(   17) = (   0.2643695   0.4579015   0.0000000), wk =   0.0833333
        k(   18) = (   0.2643695   0.5596573   0.0000000), wk =   0.1666667
        k(   19) = (   0.3524927   0.6105353   0.0000000), wk =   0.0277778

     Check: negative core charge=   -0.000002

     Initial potential from superposition of free atoms

     starting charge   71.99842, renormalised to   72.00000

     negative rho (up, down):  6.097E-04 0.000E+00
     Starting wfcs are   46 randomized atomic wfcs

     Self-consistent Calculation

     iteration #  1     ecut=    60.00 Ry     beta= 0.70
     CG style diagonalization
     ethr =  1.00E-02,  avg # of iterations =  2.1

     negative rho (up, down):  1.581E-04 0.000E+00

     total energy              =   -1470.08625650 Ry
     estimated scf accuracy    <       1.20421608 Ry

[...]

     iteration #  8     ecut=    60.00 Ry     beta= 0.70
     CG style diagonalization
     c_bands:  1 eigenvalues not converged
     ethr =  1.66E-07,  avg # of iterations =  4.5

[...]

     iteration # 20     ecut=    60.00 Ry     beta= 0.70
     CG style diagonalization
     c_bands:  1 eigenvalues not converged
     ethr =  4.38E-13,  avg # of iterations =  5.9

[...]

     total energy              =   -1470.80597612 Ry
     estimated scf accuracy    <          2.0E-12 Ry

     iteration # 48     ecut=    60.00 Ry     beta= 0.70
     CG style diagonalization
     ethr =  1.00E-13,  avg # of iterations =  3.0

[...]

     End of self-consistent calculation

          k = 0.0000 0.0000 0.0000 (  7419 PWs)   bands (ev):

   -63.8960 -63.8773 -30.9033 -30.5649 -29.9255 -29.9255 -29.9036 -29.9036
   -21.3866 -21.3557 -15.5636 -15.5571 -15.5571 -15.5550 -15.5550 -15.5532
   -15.5283 -15.5283 -15.5278 -15.5278 -15.5130 -15.5086 -15.4364 -15.4357
    -8.3821  -4.5571  -3.1457  -2.5166  -2.5166  -2.4996  -2.4996  -0.5938
     1.5432   1.5432   2.6771   4.8788

[...]

          k = 0.3525 0.6105 0.0000 (  7509 PWs)   bands (ev):

   -63.8068 -63.8063 -30.7169 -30.6239 -30.5964 -30.5963 -30.4132 -30.4131
   -21.1297 -21.1240 -15.5598 -15.5555 -15.5550 -15.5403 -15.5383 -15.5383
   -15.5372 -15.5318 -15.5318 -15.5270 -15.4998 -15.4992 -15.4548 -15.4542
    -6.3363  -3.9386  -3.9377  -3.4400  -3.4392  -3.1176  -3.0697  -0.6650
    -0.6646   0.2734   4.2318   4.2319

     highest occupied level (ev):     5.4411

!    total energy              =   -1470.80597612 Ry
     estimated scf accuracy    <          7.3E-13 Ry

     The total energy is the sum of the following terms:
     one-electron contribution =   -7505.72613749 Ry
     hartree contribution      =    3798.34578710 Ry
     xc contribution           =    -157.89661643 Ry
     ewald contribution        =    2394.47099071 Ry

     convergence has been achieved in  48 iterations

     negative rho (up, down):  7.257E-04 0.000E+00

     Forces acting on atoms (cartesian axes, Ry/au):

     atom    1 type  1   force =     0.00000000   -0.00000000   -0.00008386
     atom    2 type  2   force =     0.00000000    0.00000000    0.00003696
     atom    3 type  1   force =     0.00000000    0.00000000    0.00009689
     atom    4 type  3   force =     0.00000000    0.00000000    0.00014193
     atom    5 type  3   force =     0.00000000   -0.00000000   -0.00019192

     Total force =     0.000273     Total SCF correction =     0.000008

     Computing stress (Cartesian axis) and pressure

     negative rho (up, down):  7.257E-04 0.000E+00
          total   stress  (Ry/bohr**3)                   (kbar)     P=       -2.51
  -0.00000085   0.00000000   0.00000000           -0.12        0.00        0.00
   0.00000000  -0.00000085   0.00000000            0.00       -0.12        0.00
   0.00000000  -0.00000000  -0.00004955            0.00       -0.00       -7.29

     BFGS Geometry Optimization
     Energy error            =      0.0E+00 Ry
     Gradient error          =      1.9E-04 Ry/Bohr

     bfgs converged in   1 scf cycles and   0 bfgs steps
     (criteria: energy <  1.0E-04 Ry, force <  1.0E-03 Ry/Bohr)

     End of BFGS Geometry Optimization

     Final energy             =   -1470.8059761162 Ry
Begin final coordinates

ATOMIC_POSITIONS (alat)
Ta           -0.0000000000        0.5459690000        0.0508667000
C             0.0000000000        0.0000000000        0.4857922000
Ta            0.4728230000        0.2729845000        0.9208108000
F             0.0000000000        0.0000000000        1.3760875000
F             0.0000000000        0.0000000000       -0.4043509000
End final coordinates

     Writing output data file /scratch/as3359/Ta2CF2_looping/Ta.save/

     General routines

     Parallel routines

   This run was terminated on:  21:57:44   6Apr2022

   JOB DONE.