     Program PWSCF v.6.8 starts on  6Apr2022 at 21:42:13

     R & G space division:  proc/nbgrp/npool/nimage =       2

     Reading input from Ta2CF2.vcrelax.in

     Current dimensions of program PWSCF are:
     Max number of different atomic species (ntypx) = 10
     Max number of k-points (npk) =  40000
     Max angular momentum in pseudopotentials (lmaxx) =  4
     file Ta.pbesol-spfn-rrkjus_psl.1.0.0.UPF: wavefunction(s)  5S 5P renormalized
     file F.pbesol-n-rrkjus_psl.1.0.0.UPF: wavefunction(s)  2S renormalized
     Message from routine setup:
     using ibrav=0 with symmetry is DISCOURAGED, use correct ibrav instead

     Subspace diagonalization in iterative solution of the eigenvalue problem:
     a serial algorithm will be used

     Using Slab Decomposition

     bravais-lattice index     =            0
     lattice parameter (alat)  =       5.8997  a.u.
     unit-cell volume          =     955.0940 (a.u.)^3
     number of atoms/cell      =            5
     number of atomic types    =            3
     number of electrons       =        72.00
     number of Kohn-Sham states=           36
     kinetic-energy cutoff     =      60.0000  Ry
     charge density cutoff     =     300.0000  Ry
     scf convergence threshold =      1.0E-12
     mixing beta               =       0.7000
     number of iterations used =            8  plain     mixing
     energy convergence thresh.=      1.0E-04
     force convergence thresh. =      1.0E-03
     press convergence thresh. =      5.0E-01
     Exchange-correlation= PBESOL
                           (   1   4  10   8   0   0   0)
     nstep                     =           50

     celldm(1)=   5.899700  celldm(2)=   0.000000  celldm(3)=   0.000000
     celldm(4)=   0.000000  celldm(5)=   0.000000  celldm(6)=   0.000000

     crystal axes: (cart. coord. in units of alat)
               a(1) = (   0.946100   0.000000   0.000000 )
               a(2) = (  -0.473050   0.819347   0.000000 )
               a(3) = (   0.000000   0.000000   6.000000 )

     reciprocal axes: (cart. coord. in units 2 pi/alat)
               b(1) = (  1.056970  0.610242  0.000000 )
               b(2) = (  0.000000  1.220484  0.000000 )
               b(3) = (  0.000000  0.000000  0.166667 )

     PseudoPot. # 1 for Ta read from file:
     /shared/home/as3359/pseudo/Ta.pbesol-spfn-rrkjus_psl.1.0.0.UPF
     MD5 check sum: f099565ffaca9b150a52e9412a28e20b
     Pseudo is Ultrasoft + core correction, Zval = 27.0
     Generated using &quot;atomic&quot; code by A. Dal Corso  v.6.3
     Using radial grid of 1273 points,  8 beta functions with:
                l(1) =   0
                l(2) =   0
                l(3) =   1
                l(4) =   1
                l(5) =   2
                l(6) =   2
                l(7) =   3
                l(8) =   3
     Q(r) pseudized with 0 coefficients

     PseudoPot. # 2 for C  read from file:
     /shared/home/as3359/pseudo/C.pbesol-n-rrkjus_psl.1.0.0.UPF
     MD5 check sum: 05995be603a8a7c99da3dc4413f31573
     Pseudo is Ultrasoft + core correction, Zval =  4.0
     Generated using &quot;atomic&quot; code by A. Dal Corso  v.6.3MaX
     Using radial grid of 1073 points,  4 beta functions with:
                l(1) =   0
                l(2) =   0
                l(3) =   1
                l(4) =   1
     Q(r) pseudized with 0 coefficients

     PseudoPot. # 3 for F  read from file:
     /shared/home/as3359/pseudo/F.pbesol-n-rrkjus_psl.1.0.0.UPF
     MD5 check sum: 56b7518b93d9f54031eb04610776f7c7
     Pseudo is Ultrasoft + core correction, Zval =  7.0
     Generated using &quot;atomic&quot; code by A. Dal Corso  v.6.3MaX
     Using radial grid of 1105 points,  4 beta functions with:
                l(1) =   0
                l(2) =   0
                l(3) =   1
                l(4) =   1
     Q(r) pseudized with 0 coefficients

     atomic species   valence    mass     pseudopotential
        Ta            27.00   180.94788     Ta( 1.00)
        C              4.00    12.01070     C ( 1.00)
        F              7.00    18.99840     F ( 1.00)

      6 Sym. Ops. (no inversion) found

   Cartesian axes

     site n.     atom                  positions (alat units)
         1           Ta  tau(   1) = (   0.0000000   0.5462313   0.0508587  )
         2           C   tau(   2) = (   0.0000000   0.0000000   0.4857213  )
         3           Ta  tau(   3) = (   0.4730502   0.2731157   0.9207839  )
         4           F   tau(   4) = (   0.0000000   0.0000000   1.3761278  )
         5           F   tau(   5) = (   0.0000000   0.0000000  -0.4042852  )

     number of k points=    19
                       cart. coord. in units 2pi/alat
        k(    1) = (   0.0000000   0.0000000   0.0000000), wk =   0.0138889
        k(    2) = (   0.0000000   0.1017070   0.0000000), wk =   0.0833333
        k(    3) = (   0.0000000   0.2034140   0.0000000), wk =   0.0833333
        k(    4) = (   0.0000000   0.3051210   0.0000000), wk =   0.0833333
        k(    5) = (   0.0000000   0.4068281   0.0000000), wk =   0.0833333
        k(    6) = (   0.0000000   0.5085351   0.0000000), wk =   0.0833333
        k(    7) = (   0.0000000  -0.6102421   0.0000000), wk =   0.0416667
        k(    8) = (   0.0880809   0.1525605   0.0000000), wk =   0.0833333
        k(    9) = (   0.0880809   0.2542675   0.0000000), wk =   0.1666667
        k(   10) = (   0.0880809   0.3559746   0.0000000), wk =   0.1666667
        k(   11) = (   0.0880809   0.4576816   0.0000000), wk =   0.1666667
        k(   12) = (   0.0880809   0.5593886   0.0000000), wk =   0.1666667
        k(   13) = (   0.1761617   0.3051210   0.0000000), wk =   0.0833333
        k(   14) = (   0.1761617   0.4068281   0.0000000), wk =   0.1666667
        k(   15) = (   0.1761617   0.5085351   0.0000000), wk =   0.1666667
        k(   16) = (   0.1761617   0.6102421   0.0000000), wk =   0.0833333
        k(   17) = (   0.2642426   0.4576816   0.0000000), wk =   0.0833333
        k(   18) = (   0.2642426   0.5593886   0.0000000), wk =   0.1666667
        k(   19) = (   0.3523234   0.6102421   0.0000000), wk =   0.0277778

     Check: negative core charge=   -0.000002

     Initial potential from superposition of free atoms

     starting charge   71.99842, renormalised to   72.00000

     negative rho (up, down):  6.019E-04 0.000E+00
     Starting wfcs are   46 randomized atomic wfcs

     Self-consistent Calculation

     iteration #  1     ecut=    60.00 Ry     beta= 0.70
     CG style diagonalization
     ethr =  1.00E-02,  avg # of iterations =  2.1

     negative rho (up, down):  1.496E-04 0.000E+00

     total energy              =   -1470.08711027 Ry
     estimated scf accuracy    <       1.20389362 Ry

[...]

     iteration # 17     ecut=    60.00 Ry     beta= 0.70
     CG style diagonalization
     c_bands:  1 eigenvalues not converged
     ethr =  6.85E-12,  avg # of iterations =  5.4

[...]

     End of self-consistent calculation

          k = 0.0000 0.0000 0.0000 (  7419 PWs)   bands (ev):

   -63.9079 -63.8893 -30.9132 -30.5755 -29.9387 -29.9387 -29.9167 -29.9167
   -21.3909 -21.3600 -15.5763 -15.5698 -15.5698 -15.5677 -15.5677 -15.5659
   -15.5414 -15.5414 -15.5404 -15.5404 -15.5255 -15.5210 -15.4495 -15.4483
    -8.3875  -4.5606  -3.1496  -2.5234  -2.5234  -2.5058  -2.5058  -0.5986
     1.5330   1.5330   2.6742   4.8697

[...]

     highest occupied level (ev):     5.4327

!    total energy              =   -1470.80601803 Ry
     estimated scf accuracy    <          4.7E-13 Ry

     The total energy is the sum of the following terms:
     one-electron contribution =   -7499.95377713 Ry
     hartree contribution      =    3795.43116019 Ry
     xc contribution           =    -157.89244264 Ry
     ewald contribution        =    2391.60904155 Ry

     convergence has been achieved in  25 iterations

[...]

     Forces acting on atoms (cartesian axes, Ry/au):

     atom    1 type  1   force =     0.00000000   -0.00000000    0.00009668
     atom    2 type  2   force =     0.00000000   -0.00000000    0.00018004
     atom    3 type  1   force =     0.00000000    0.00000000    0.00000104
     atom    4 type  3   force =     0.00000000    0.00000000   -0.00018087
     atom    5 type  3   force =     0.00000000    0.00000000   -0.00009688

     Total force =     0.000290     Total SCF correction =     0.000007

     Computing stress (Cartesian axis) and pressure

     negative rho (up, down):  7.198E-04 0.000E+00
          total   stress  (Ry/bohr**3)                   (kbar)     P=       -3.48
  -0.00000915   0.00000000   0.00000000           -1.35        0.00        0.00
   0.00000000  -0.00000915   0.00000000            0.00       -1.35        0.00
   0.00000000   0.00000000  -0.00005259            0.00        0.00       -7.74

     BFGS Geometry Optimization
     Energy error            =      0.0E+00 Ry
     Gradient error          =      1.8E-04 Ry/Bohr
     Cell gradient error     =      1.3E+00 kbar

     number of scf cycles    =   1
     number of bfgs steps    =   0

     enthalpy           new  =   -1470.8060180288 Ry

     new trust radius        =       0.0014134624 bohr
     new conv_thr            =            1.0E-12 Ry

     new unit-cell volume =    954.65718 a.u.^3 (   141.46560 Ang^3 )
     density =      4.83497 g/cm^3

CELL_PARAMETERS (alat=  5.89970000)
   0.945884018   0.000000000   0.000000000
  -0.472942008   0.819159589   0.000000000
   0.000000000   0.000000000   6.000000000

ATOMIC_POSITIONS (crystal)
Ta            0.3333333330        0.6666666670        0.0084791775    0   0   1
C             0.0000000000        0.0000000000        0.0809586428    0   0   1
Ta            0.6666666670        0.3333333330        0.1534640045    0   0   1
F             0.0000000000        0.0000000000        0.2293495254
F             0.0000000000        0.0000000000       -0.0673836096

     Writing output data file /scratch/as3359/Ta2CF2_looping/Ta.save/
     NEW-OLD atomic charge density approx. for the potential

[...]

     negative rho (up, down):  7.221E-04 0.000E+00
     extrapolated charge   71.96706, renormalised to   72.00000

[...]

          k =-0.0000 0.1017 0.0000 (  7432 PWs)   bands (ev):

[...]

     Energy error            =      3.2E-06 Ry
     Gradient error          =      1.5E-04 Ry/Bohr
     Cell gradient error     =      7.4E-01 kbar

     number of scf cycles    =   2
     number of bfgs steps    =   1

     enthalpy           old  =   -1470.8060180288 Ry
     enthalpy           new  =   -1470.8060211841 Ry

     CASE: enthalpy          _new < enthalpy          _old

     new trust radius        =       0.0015548086 bohr
     new conv_thr            =            1.0E-14 Ry

     new unit-cell volume =    954.17684 a.u.^3 (   141.39442 Ang^3 )
     density =      4.83740 g/cm^3

[...]

ATOMIC_POSITIONS (crystal)
Ta            0.3333333330        0.6666666670        0.0084777904    0   0   1
C             0.0000000000        0.0000000000        0.0809653684    0   0   1
Ta            0.6666666670        0.3333333330        0.1534684720    0   0   1
F             0.0000000000        0.0000000000        0.2293479205
F             0.0000000000        0.0000000000       -0.0673918107

     Writing output data file /scratch/as3359/Ta2CF2_looping/Ta.save/
     NEW-OLD atomic charge density approx. for the potential

[...]

     negative rho (up, down):  7.242E-04 0.000E+00
     extrapolated charge   71.96376, renormalised to   72.00000

[...]

     Energy error            =      1.4E-06 Ry
     Gradient error          =      1.9E-04 Ry/Bohr
     Cell gradient error     =      9.4E-02 kbar

     bfgs converged in   3 scf cycles and   2 bfgs steps
     (criteria: energy <  1.0E-04 Ry, force <  1.0E-03Ry/Bohr, cell <  5.0E-01kbar)

     End of BFGS Geometry Optimization

     Final enthalpy           =   -1470.8060226292 Ry

     File /scratch/as3359/Ta2CF2_looping/Ta.bfgs deleted, as requested
Begin final coordinates
     new unit-cell volume =    954.17684 a.u.^3 (   141.39442 Ang^3 )
     density =      4.83740 g/cm^3

CELL_PARAMETERS (alat=  5.89970000)
   0.945646027   0.000000000   0.000000000
  -0.472823012   0.818953483   0.000000000
   0.000000000   0.000000000   6.000000000

ATOMIC_POSITIONS (crystal)
Ta            0.3333333330        0.6666666670        0.0084777904    0   0   1
C             0.0000000000        0.0000000000        0.0809653684    0   0   1
Ta            0.6666666670        0.3333333330        0.1534684720    0   0   1
F             0.0000000000        0.0000000000        0.2293479205
F             0.0000000000        0.0000000000       -0.0673918107
End final coordinates

     Writing output data file /scratch/as3359/Ta2CF2_looping/Ta.save/

     Final scf calculation at the relaxed structure.
     The G-vectors are recalculated for the final unit cell
     Results may differ from those at the preceding step.

     Using Slab Decomposition

     bravais-lattice index     =            0
     lattice parameter (alat)  =       5.8997  a.u.
     unit-cell volume          =     954.1768 (a.u.)^3
     number of atoms/cell      =            5
     number of atomic types    =            3
     number of electrons       =        72.00
     number of Kohn-Sham states=           36
     kinetic-energy cutoff     =      60.0000  Ry
     charge density cutoff     =     300.0000  Ry
     scf convergence threshold =      1.0E-14
     mixing beta               =       0.7000
     number of iterations used =            8  plain     mixing
     press convergence thresh. =      5.0E-01
     Exchange-correlation= PBESOL
                           (   1   4  10   8   0   0   0)

     celldm(1)=   5.899700  celldm(2)=   0.000000  celldm(3)=   0.000000
     celldm(4)=   0.000000  celldm(5)=   0.000000  celldm(6)=   0.000000

     crystal axes: (cart. coord. in units of alat)
               a(1) = (   0.945646   0.000000   0.000000 )
               a(2) = (  -0.472823   0.818953   0.000000 )
               a(3) = (   0.000000   0.000000   6.000000 )

     reciprocal axes: (cart. coord. in units 2 pi/alat)
               b(1) = (  1.057478  0.610535  0.000000 )
               b(2) = ( -0.000000  1.221071  0.000000 )
               b(3) = (  0.000000  0.000000  0.166667 )

     PseudoPot. # 1 for Ta read from file:
     /shared/home/as3359/pseudo/Ta.pbesol-spfn-rrkjus_psl.1.0.0.UPF
     MD5 check sum: f099565ffaca9b150a52e9412a28e20b
     Pseudo is Ultrasoft + core correction, Zval = 27.0
     Generated using &quot;atomic&quot; code by A. Dal Corso  v.6.3
     Using radial grid of 1273 points,  8 beta functions with:
                l(1) =   0
                l(2) =   0
                l(3) =   1
                l(4) =   1
                l(5) =   2
                l(6) =   2
                l(7) =   3
                l(8) =   3
     Q(r) pseudized with 0 coefficients

     PseudoPot. # 2 for C  read from file:
     /shared/home/as3359/pseudo/C.pbesol-n-rrkjus_psl.1.0.0.UPF
     MD5 check sum: 05995be603a8a7c99da3dc4413f31573
     Pseudo is Ultrasoft + core correction, Zval =  4.0
     Generated using &quot;atomic&quot; code by A. Dal Corso  v.6.3MaX
     Using radial grid of 1073 points,  4 beta functions with:
                l(1) =   0
                l(2) =   0
                l(3) =   1
                l(4) =   1
     Q(r) pseudized with 0 coefficients

     PseudoPot. # 3 for F  read from file:
     /shared/home/as3359/pseudo/F.pbesol-n-rrkjus_psl.1.0.0.UPF
     MD5 check sum: 56b7518b93d9f54031eb04610776f7c7
     Pseudo is Ultrasoft + core correction, Zval =  7.0
     Generated using &quot;atomic&quot; code by A. Dal Corso  v.6.3MaX
     Using radial grid of 1105 points,  4 beta functions with:
                l(1) =   0
                l(2) =   0
                l(3) =   1
                l(4) =   1
     Q(r) pseudized with 0 coefficients

     atomic species   valence    mass     pseudopotential
        Ta            27.00   180.94788     Ta( 1.00)
        C              4.00    12.01070     C ( 1.00)
        F              7.00    18.99840     F ( 1.00)

      6 Sym. Ops. (no inversion) found

   Cartesian axes

     site n.     atom                  positions (alat units)
         1           Ta  tau(   1) = (   0.0000000   0.5459690   0.0508667  )
         2           C   tau(   2) = (   0.0000000   0.0000000   0.4857922  )
         3           Ta  tau(   3) = (   0.4728230   0.2729845   0.9208108  )
         4           F   tau(   4) = (   0.0000000   0.0000000   1.3760875  )
         5           F   tau(   5) = (   0.0000000   0.0000000  -0.4043509  )

     number of k points=    19
                       cart. coord. in units 2pi/alat
        k(    1) = (   0.0000000   0.0000000   0.0000000), wk =   0.0138889
        k(    2) = (  -0.0000000   0.1017559   0.0000000), wk =   0.0833333
        k(    3) = (  -0.0000000   0.2035118   0.0000000), wk =   0.0833333
        k(    4) = (  -0.0000000   0.3052676   0.0000000), wk =   0.0833333
        k(    5) = (  -0.0000000   0.4070235   0.0000000), wk =   0.0833333
        k(    6) = (  -0.0000000   0.5087794   0.0000000), wk =   0.0833333
        k(    7) = (   0.0000000  -0.6105353   0.0000000), wk =   0.0416667
        k(    8) = (   0.0881232   0.1526338   0.0000000), wk =   0.0833333
        k(    9) = (   0.0881232   0.2543897   0.0000000), wk =   0.1666667
        k(   10) = (   0.0881232   0.3561456   0.0000000), wk =   0.1666667
        k(   11) = (   0.0881232   0.4579015   0.0000000), wk =   0.1666667
        k(   12) = (   0.0881232   0.5596573   0.0000000), wk =   0.1666667
        k(   13) = (   0.1762464   0.3052676   0.0000000), wk =   0.0833333
        k(   14) = (   0.1762464   0.4070235   0.0000000), wk =   0.1666667
        k(   15) = (   0.1762464   0.5087794   0.0000000), wk =   0.1666667
        k(   16) = (   0.1762464   0.6105353   0.0000000), wk =   0.0833333
        k(   17) = (   0.2643695   0.4579015   0.0000000), wk =   0.0833333
        k(   18) = (   0.2643695   0.5596573   0.0000000), wk =   0.1666667
        k(   19) = (   0.3524927   0.6105353   0.0000000), wk =   0.0277778

     Check: negative core charge=   -0.000002

     Initial potential from superposition of free atoms

     starting charge   71.99842, renormalised to   72.00000

     negative rho (up, down):  6.097E-04 0.000E+00
     Starting wfcs are   46 randomized atomic wfcs

     Self-consistent Calculation

     iteration #  1     ecut=    60.00 Ry     beta= 0.70
     CG style diagonalization
     c_bands:  1 eigenvalues not converged
     ethr =  1.00E-06,  avg # of iterations =  8.0

[...]

     total energy              =   -1470.80597530 Ry
     estimated scf accuracy    <          1.2E-14 Ry

     iteration # 55     ecut=    60.00 Ry     beta= 0.70
     CG style diagonalization
     ethr =  1.00E-13,  avg # of iterations =  3.0

[...]

     End of self-consistent calculation

[...]

          k =-0.0000 0.5088 0.0000 (  7494 PWs)   bands (ev):

[...]

          k = 0.3525 0.6105 0.0000 (  7509 PWs)   bands (ev):

   -63.8068 -63.8063 -30.7169 -30.6239 -30.5964 -30.5963 -30.4132 -30.4131
   -21.1297 -21.1240 -15.5598 -15.5555 -15.5550 -15.5403 -15.5383 -15.5383
   -15.5372 -15.5318 -15.5318 -15.5270 -15.4998 -15.4992 -15.4547 -15.4542
    -6.3363  -3.9386  -3.9377  -3.4400  -3.4392  -3.1176  -3.0697  -0.6650
    -0.6646   0.2734   4.2318   4.2319

     highest occupied level (ev):     5.4411

!    total energy              =   -1470.80597530 Ry
     estimated scf accuracy    <          3.6E-15 Ry

     The total energy is the sum of the following terms:
     one-electron contribution =   -7505.72618419 Ry
     hartree contribution      =    3798.34580789 Ry
     xc contribution           =    -157.89661557 Ry
     ewald contribution        =    2394.47101657 Ry

     convergence has been achieved in  55 iterations

     negative rho (up, down):  7.257E-04 0.000E+00

     Forces acting on atoms (cartesian axes, Ry/au):

     atom    1 type  1   force =     0.00000000   -0.00000000   -0.00008627
     atom    2 type  2   force =     0.00000000    0.00000000    0.00003791
     atom    3 type  1   force =    -0.00000000    0.00000000    0.00009687
     atom    4 type  3   force =     0.00000000    0.00000000    0.00014265
     atom    5 type  3   force =     0.00000000   -0.00000000   -0.00019115

     Total force =     0.000274     Total SCF correction =     0.000000

     Computing stress (Cartesian axis) and pressure

     negative rho (up, down):  7.257E-04 0.000E+00
          total   stress  (Ry/bohr**3)                   (kbar)     P=       -2.51
  -0.00000086   0.00000000   0.00000000           -0.13        0.00        0.00
   0.00000000  -0.00000086   0.00000000            0.00       -0.13        0.00
  -0.00000000   0.00000000  -0.00004956           -0.00        0.00       -7.29

     Writing output data file /scratch/as3359/Ta2CF2_looping/Ta.save/

     General routines

     Parallel routines

   This run was terminated on:  21:54:34   6Apr2022

   JOB DONE.