     Program PWSCF v.6.8 starts on  7Apr2022 at 19:11:44

     R & G space division:  proc/nbgrp/npool/nimage =       2

     Reading input from Ta2CF2.vcrelax.in

     Current dimensions of program PWSCF are:
     Max number of different atomic species (ntypx) = 10
     Max number of k-points (npk) =  40000
     Max angular momentum in pseudopotentials (lmaxx) =  4
     file Ta.pbesol-spfn-rrkjus_psl.1.0.0.UPF: wavefunction(s)  5S 5P renormalized
     file F.pbesol-n-rrkjus_psl.1.0.0.UPF: wavefunction(s)  2S renormalized
     Message from routine setup:
     using ibrav=0 with symmetry is DISCOURAGED, use correct ibrav instead

     Subspace diagonalization in iterative solution of the eigenvalue problem:
     a serial algorithm will be used

     Using Slab Decomposition

     bravais-lattice index     =            0
     lattice parameter (alat)  =       5.8997  a.u.
     unit-cell volume          =     955.0940 (a.u.)^3
     number of atoms/cell      =            5
     number of atomic types    =            3
     number of electrons       =        72.00
     number of Kohn-Sham states=           43
     kinetic-energy cutoff     =      60.0000  Ry
     charge density cutoff     =     300.0000  Ry
     scf convergence threshold =      1.0E-12
     mixing beta               =       0.7000
     number of iterations used =            8  plain     mixing
     energy convergence thresh.=      1.0E-04
     force convergence thresh. =      1.0E-03
     press convergence thresh. =      5.0E-01
     Exchange-correlation= PBESOL
                           (   1   4  10   8   0   0   0)
     nstep                     =           50

     celldm(1)=   5.899700  celldm(2)=   0.000000  celldm(3)=   0.000000
     celldm(4)=   0.000000  celldm(5)=   0.000000  celldm(6)=   0.000000

     crystal axes: (cart. coord. in units of alat)
               a(1) = (   0.946100   0.000000   0.000000 )
               a(2) = (  -0.473050   0.819347   0.000000 )
               a(3) = (   0.000000   0.000000   6.000000 )

     reciprocal axes: (cart. coord. in units 2 pi/alat)
               b(1) = (  1.056970  0.610242  0.000000 )
               b(2) = (  0.000000  1.220484  0.000000 )
               b(3) = (  0.000000  0.000000  0.166667 )

     PseudoPot. # 1 for Ta read from file:
     /shared/home/as3359/pseudo/Ta.pbesol-spfn-rrkjus_psl.1.0.0.UPF
     MD5 check sum: f099565ffaca9b150a52e9412a28e20b
     Pseudo is Ultrasoft + core correction, Zval = 27.0
     Generated using &quot;atomic&quot; code by A. Dal Corso  v.6.3
     Using radial grid of 1273 points,  8 beta functions with:
                l(1) =   0
                l(2) =   0
                l(3) =   1
                l(4) =   1
                l(5) =   2
                l(6) =   2
                l(7) =   3
                l(8) =   3
     Q(r) pseudized with 0 coefficients

     PseudoPot. # 2 for C  read from file:
     /shared/home/as3359/pseudo/C.pbesol-n-rrkjus_psl.1.0.0.UPF
     MD5 check sum: 05995be603a8a7c99da3dc4413f31573
     Pseudo is Ultrasoft + core correction, Zval =  4.0
     Generated using &quot;atomic&quot; code by A. Dal Corso  v.6.3MaX
     Using radial grid of 1073 points,  4 beta functions with:
                l(1) =   0
                l(2) =   0
                l(3) =   1
                l(4) =   1
     Q(r) pseudized with 0 coefficients

     PseudoPot. # 3 for F  read from file:
     /shared/home/as3359/pseudo/F.pbesol-n-rrkjus_psl.1.0.0.UPF
     MD5 check sum: 56b7518b93d9f54031eb04610776f7c7
     Pseudo is Ultrasoft + core correction, Zval =  7.0
     Generated using &quot;atomic&quot; code by A. Dal Corso  v.6.3MaX
     Using radial grid of 1105 points,  4 beta functions with:
                l(1) =   0
                l(2) =   0
                l(3) =   1
                l(4) =   1
     Q(r) pseudized with 0 coefficients

     atomic species   valence    mass     pseudopotential
        Ta            27.00   180.94788     Ta( 1.00)
        C              4.00    12.01070     C ( 1.00)
        F              7.00    18.99840     F ( 1.00)

      6 Sym. Ops. (no inversion) found

   Cartesian axes

     site n.     atom                  positions (alat units)
         1           Ta  tau(   1) = (   0.0000000   0.5462313   0.0508667  )
         2           C   tau(   2) = (   0.0000000   0.0000000   0.4857922  )
         3           Ta  tau(   3) = (   0.4730502   0.2731157   0.9208108  )
         4           F   tau(   4) = (   0.0000000   0.0000000   1.3760875  )
         5           F   tau(   5) = (   0.4730502   0.2731157  -0.4043509  )

     number of k points=    19  Marzari-Vanderbilt smearing, width (Ry)=  0.0050
                       cart. coord. in units 2pi/alat
        k(    1) = (   0.0000000   0.0000000   0.0000000), wk =   0.0138889
        k(    2) = (   0.0000000   0.1017070   0.0000000), wk =   0.0833333
        k(    3) = (   0.0000000   0.2034140   0.0000000), wk =   0.0833333
        k(    4) = (   0.0000000   0.3051210   0.0000000), wk =   0.0833333
        k(    5) = (   0.0000000   0.4068281   0.0000000), wk =   0.0833333
        k(    6) = (   0.0000000   0.5085351   0.0000000), wk =   0.0833333
        k(    7) = (   0.0000000  -0.6102421   0.0000000), wk =   0.0416667
        k(    8) = (   0.0880809   0.1525605   0.0000000), wk =   0.0833333
        k(    9) = (   0.0880809   0.2542675   0.0000000), wk =   0.1666667
        k(   10) = (   0.0880809   0.3559746   0.0000000), wk =   0.1666667
        k(   11) = (   0.0880809   0.4576816   0.0000000), wk =   0.1666667
        k(   12) = (   0.0880809   0.5593886   0.0000000), wk =   0.1666667
        k(   13) = (   0.1761617   0.3051210   0.0000000), wk =   0.0833333
        k(   14) = (   0.1761617   0.4068281   0.0000000), wk =   0.1666667
        k(   15) = (   0.1761617   0.5085351   0.0000000), wk =   0.1666667
        k(   16) = (   0.1761617   0.6102421   0.0000000), wk =   0.0833333
        k(   17) = (   0.2642426   0.4576816   0.0000000), wk =   0.0833333
        k(   18) = (   0.2642426   0.5593886   0.0000000), wk =   0.1666667
        k(   19) = (   0.3523234   0.6102421   0.0000000), wk =   0.0277778

     Check: negative core charge=   -0.000002

     Initial potential from superposition of free atoms

     starting charge   71.99842, renormalised to   72.00000

     negative rho (up, down):  6.221E-04 0.000E+00
     Starting wfcs are   46 randomized atomic wfcs

     Self-consistent Calculation

     iteration #  1     ecut=    60.00 Ry     beta= 0.70
     CG style diagonalization
     ethr =  1.00E-02,  avg # of iterations =  2.2

     negative rho (up, down):  1.790E-04 0.000E+00

     total energy              =   -1470.02555522 Ry
     estimated scf accuracy    <       1.23408889 Ry

[...]

     iteration # 18     ecut=    60.00 Ry     beta= 0.70
     CG style diagonalization
     c_bands:  2 eigenvalues not converged
     c_bands:  1 eigenvalues not converged
     c_bands:  1 eigenvalues not converged
     c_bands:  1 eigenvalues not converged
     c_bands:  1 eigenvalues not converged
     ethr =  2.38E-12,  avg # of iterations =  5.8

[...]

     End of self-consistent calculation

          k = 0.0000 0.0000 0.0000 (  7419 PWs)   bands (ev):

   -63.9844 -63.9320 -30.9461 -30.6017 -30.0823 -30.0823 -29.9435 -29.9435
   -21.3549 -21.3099 -15.6653 -15.6505 -15.6505 -15.6312 -15.6164 -15.6164
   -15.6145 -15.6001 -15.6001 -15.5851 -15.5851 -15.5760 -15.5489 -15.4738
    -8.4667  -4.5725  -3.1712  -2.5215  -2.5215  -2.4872  -2.4872  -0.7644
     1.6242   1.6242   2.5642   4.6216   4.6216   6.1947   6.6011   6.6011
     6.8062   7.1665   7.1666

[...]

     the Fermi energy is     4.9588 ev

!    total energy              =   -1470.76585644 Ry
     estimated scf accuracy    <          3.8E-13 Ry
     smearing contrib. (-TS)   =      -0.00010962 Ry
     internal energy E=F+TS    =   -1470.76574682 Ry

     The total energy is F=E-TS. E is the sum of the following terms:
     one-electron contribution =   -7499.39845920 Ry
     hartree contribution      =    3795.05318134 Ry
     xc contribution           =    -157.90561760 Ry
     ewald contribution        =    2391.48514864 Ry

     convergence has been achieved in  24 iterations

[...]

     Forces acting on atoms (cartesian axes, Ry/au):

     atom    1 type  1   force =     0.00000000    0.00000000    0.02994293
     atom    2 type  2   force =     0.00000000   -0.00000000    0.04680778
     atom    3 type  1   force =     0.00000000    0.00000000   -0.06233109
     atom    4 type  3   force =     0.00000000    0.00000000    0.01465526
     atom    5 type  3   force =     0.00000000    0.00000000   -0.02907489

     Total force =     0.089626     Total SCF correction =     0.000005

     Computing stress (Cartesian axis) and pressure

     negative rho (up, down):  7.279E-04 0.000E+00
          total   stress  (Ry/bohr**3)                   (kbar)     P=       -0.95
   0.00002018  -0.00000000   0.00000000            2.97       -0.00        0.00
  -0.00000000   0.00002018  -0.00000000           -0.00        2.97       -0.00
   0.00000000   0.00000000  -0.00005975            0.00        0.00       -8.79

     BFGS Geometry Optimization
     Energy error            =      0.0E+00 Ry
     Gradient error          =      6.2E-02 Ry/Bohr
     Cell gradient error     =      3.0E+00 kbar

     number of scf cycles    =   1
     number of bfgs steps    =   0

     enthalpy           new  =   -1470.7658564449 Ry

     new trust radius        =       0.0623310880 bohr
     new conv_thr            =            1.0E-12 Ry

     new unit-cell volume =    956.05785 a.u.^3 (   141.67316 Ang^3 )
     density =      4.82788 g/cm^3

CELL_PARAMETERS (alat=  5.89970000)
   0.946577666  -0.000000000   0.000000000
  -0.473288832   0.819760306   0.000000000
   0.000000000   0.000000000   6.000000000

ATOMIC_POSITIONS (crystal)
Ta            0.3333333330        0.6666666670        0.0093236789
C            -0.0000000000       -0.0000000000        0.0822876894
Ta            0.6666666670        0.3333333330        0.1517076173
F             0.0000000000        0.0000000000        0.2297619321
F             0.6666666670        0.3333333330       -0.0682131770

     Writing output data file /scratch/as3359/Ta2CF2_loop/Ta.save/
     NEW-OLD atomic charge density approx. for the potential

[...]

     negative rho (up, down):  7.162E-04 0.000E+00
     extrapolated charge   72.07259, renormalised to   72.00000

[...]

          k =-0.0000-0.6099 0.0000 (  7546 PWs)   bands (ev):

[...]

     Energy error            =      5.7E-03 Ry
     Gradient error          =      2.3E-02 Ry/Bohr
     Cell gradient error     =      4.9E+00 kbar

[...]

     enthalpy           old  =   -1470.7658564449 Ry
     enthalpy           new  =   -1470.7715732788 Ry

     CASE: enthalpy          _new < enthalpy          _old

[...]

     WARNING: integrated charge=    72.00056442, expected=    72.00000000

[...]

     WARNING: integrated charge=    71.99998903, expected=    72.00000000

[...]

     number of scf cycles    =  10
     number of bfgs steps    =   9

     enthalpy           old  =   -1470.7745601671 Ry
     enthalpy           new  =   -1470.7745927872 Ry

     CASE: enthalpy          _new < enthalpy          _old

     new trust radius        =       0.0053165989 bohr
     new conv_thr            =            1.0E-14 Ry

     new unit-cell volume =    978.15809 a.u.^3 (   144.94807 Ang^3 )
     density =      4.71880 g/cm^3

[...]

ATOMIC_POSITIONS (crystal)
Ta            0.3333333330        0.6666666670        0.0118567941
C            -0.0000000000       -0.0000000000        0.0834455179
Ta            0.6666666670        0.3333333330        0.1482869032
F             0.0000000000        0.0000000000        0.2271307799
F             0.6666666670        0.3333333330       -0.0658522545

     Writing output data file /scratch/as3359/Ta2CF2_loop/Ta.save/
     NEW-OLD atomic charge density approx. for the potential

[...]

     negative rho (up, down):  6.164E-04 0.000E+00
     extrapolated charge   71.93855, renormalised to   72.00000

[...]

     Energy error            =      2.2E-05 Ry
     Gradient error          =      4.6E-04 Ry/Bohr
     Cell gradient error     =      1.9E-01 kbar

     bfgs converged in  11 scf cycles and  10 bfgs steps
     (criteria: energy <  1.0E-04 Ry, force <  1.0E-03Ry/Bohr, cell <  5.0E-01kbar)

     End of BFGS Geometry Optimization

     Final enthalpy           =   -1470.7746151633 Ry

     File /scratch/as3359/Ta2CF2_loop/Ta.bfgs deleted, as requested
Begin final coordinates
     new unit-cell volume =    978.15809 a.u.^3 (   144.94807 Ang^3 )
     density =      4.71880 g/cm^3

CELL_PARAMETERS (alat=  5.89970000)
   0.957455708  -0.000000000   0.000000000
  -0.478727853   0.829180967   0.000000000
   0.000000000   0.000000000   6.000000000

ATOMIC_POSITIONS (crystal)
Ta            0.3333333330        0.6666666670        0.0118567941
C            -0.0000000000       -0.0000000000        0.0834455179
Ta            0.6666666670        0.3333333330        0.1482869032
F             0.0000000000        0.0000000000        0.2271307799
F             0.6666666670        0.3333333330       -0.0658522545
End final coordinates

     Writing output data file /scratch/as3359/Ta2CF2_loop/Ta.save/

     Final scf calculation at the relaxed structure.
     The G-vectors are recalculated for the final unit cell
     Results may differ from those at the preceding step.

     Using Slab Decomposition

     bravais-lattice index     =            0
     lattice parameter (alat)  =       5.8997  a.u.
     unit-cell volume          =     978.1581 (a.u.)^3
     number of atoms/cell      =            5
     number of atomic types    =            3
     number of electrons       =        72.00
     number of Kohn-Sham states=           43
     kinetic-energy cutoff     =      60.0000  Ry
     charge density cutoff     =     300.0000  Ry
     scf convergence threshold =      1.0E-14
     mixing beta               =       0.7000
     number of iterations used =            8  plain     mixing
     press convergence thresh. =      5.0E-01
     Exchange-correlation= PBESOL
                           (   1   4  10   8   0   0   0)

     celldm(1)=   5.899700  celldm(2)=   0.000000  celldm(3)=   0.000000
     celldm(4)=   0.000000  celldm(5)=   0.000000  celldm(6)=   0.000000

     crystal axes: (cart. coord. in units of alat)
               a(1) = (   0.957456  -0.000000   0.000000 )
               a(2) = (  -0.478728   0.829181   0.000000 )
               a(3) = (   0.000000   0.000000   6.000000 )

     reciprocal axes: (cart. coord. in units 2 pi/alat)
               b(1) = (  1.044435  0.603005  0.000000 )
               b(2) = (  0.000000  1.206009  0.000000 )
               b(3) = (  0.000000  0.000000  0.166667 )

     PseudoPot. # 1 for Ta read from file:
     /shared/home/as3359/pseudo/Ta.pbesol-spfn-rrkjus_psl.1.0.0.UPF
     MD5 check sum: f099565ffaca9b150a52e9412a28e20b
     Pseudo is Ultrasoft + core correction, Zval = 27.0
     Generated using &quot;atomic&quot; code by A. Dal Corso  v.6.3
     Using radial grid of 1273 points,  8 beta functions with:
                l(1) =   0
                l(2) =   0
                l(3) =   1
                l(4) =   1
                l(5) =   2
                l(6) =   2
                l(7) =   3
                l(8) =   3
     Q(r) pseudized with 0 coefficients

     PseudoPot. # 2 for C  read from file:
     /shared/home/as3359/pseudo/C.pbesol-n-rrkjus_psl.1.0.0.UPF
     MD5 check sum: 05995be603a8a7c99da3dc4413f31573
     Pseudo is Ultrasoft + core correction, Zval =  4.0
     Generated using &quot;atomic&quot; code by A. Dal Corso  v.6.3MaX
     Using radial grid of 1073 points,  4 beta functions with:
                l(1) =   0
                l(2) =   0
                l(3) =   1
                l(4) =   1
     Q(r) pseudized with 0 coefficients

     PseudoPot. # 3 for F  read from file:
     /shared/home/as3359/pseudo/F.pbesol-n-rrkjus_psl.1.0.0.UPF
     MD5 check sum: 56b7518b93d9f54031eb04610776f7c7
     Pseudo is Ultrasoft + core correction, Zval =  7.0
     Generated using &quot;atomic&quot; code by A. Dal Corso  v.6.3MaX
     Using radial grid of 1105 points,  4 beta functions with:
                l(1) =   0
                l(2) =   0
                l(3) =   1
                l(4) =   1
     Q(r) pseudized with 0 coefficients

     atomic species   valence    mass     pseudopotential
        Ta            27.00   180.94788     Ta( 1.00)
        C              4.00    12.01070     C ( 1.00)
        F              7.00    18.99840     F ( 1.00)

      6 Sym. Ops. (no inversion) found

   Cartesian axes

     site n.     atom                  positions (alat units)
         1           Ta  tau(   1) = (   0.0000000   0.5527873   0.0711408  )
         2           C   tau(   2) = (   0.0000000  -0.0000000   0.5006731  )
         3           Ta  tau(   3) = (   0.4787279   0.2763937   0.8897214  )
         4           F   tau(   4) = (  -0.0000000   0.0000000   1.3627847  )
         5           F   tau(   5) = (   0.4787279   0.2763937  -0.3951135  )

     number of k points=    19  Marzari-Vanderbilt smearing, width (Ry)=  0.0050
                       cart. coord. in units 2pi/alat
        k(    1) = (   0.0000000   0.0000000   0.0000000), wk =   0.0138889
        k(    2) = (   0.0000000   0.1005008   0.0000000), wk =   0.0833333
        k(    3) = (   0.0000000   0.2010016   0.0000000), wk =   0.0833333
        k(    4) = (   0.0000000   0.3015023   0.0000000), wk =   0.0833333
        k(    5) = (   0.0000000   0.4020031   0.0000000), wk =   0.0833333
        k(    6) = (   0.0000000   0.5025039   0.0000000), wk =   0.0833333
        k(    7) = (  -0.0000000  -0.6030047   0.0000000), wk =   0.0416667
        k(    8) = (   0.0870362   0.1507512   0.0000000), wk =   0.0833333
        k(    9) = (   0.0870362   0.2512519   0.0000000), wk =   0.1666667
        k(   10) = (   0.0870362   0.3517527   0.0000000), wk =   0.1666667
        k(   11) = (   0.0870362   0.4522535   0.0000000), wk =   0.1666667
        k(   12) = (   0.0870362   0.5527543   0.0000000), wk =   0.1666667
        k(   13) = (   0.1740725   0.3015023   0.0000000), wk =   0.0833333
        k(   14) = (   0.1740725   0.4020031   0.0000000), wk =   0.1666667
        k(   15) = (   0.1740725   0.5025039   0.0000000), wk =   0.1666667
        k(   16) = (   0.1740725   0.6030047   0.0000000), wk =   0.0833333
        k(   17) = (   0.2611087   0.4522535   0.0000000), wk =   0.0833333
        k(   18) = (   0.2611087   0.5527543   0.0000000), wk =   0.1666667
        k(   19) = (   0.3481449   0.6030047   0.0000000), wk =   0.0277778

     Check: negative core charge=   -0.000002

     Initial potential from superposition of free atoms

     starting charge   71.99842, renormalised to   72.00000

     negative rho (up, down):  6.274E-04 0.000E+00
     Starting wfcs are   46 randomized atomic wfcs

     Self-consistent Calculation

[...]

     iteration # 22     ecut=    60.00 Ry     beta= 0.70
     CG style diagonalization
     c_bands:  1 eigenvalues not converged
     ethr =  1.00E-13,  avg # of iterations =  3.4

[...]

     total energy              =   -1470.77587589 Ry
     estimated scf accuracy    <          1.7E-14 Ry

     iteration # 36     ecut=    60.00 Ry     beta= 0.70
     CG style diagonalization
     ethr =  1.00E-13,  avg # of iterations =  3.0

[...]

     End of self-consistent calculation

[...]

          k =-0.0000-0.6030 0.0000 (  7678 PWs)   bands (ev):

[...]

          k = 0.3481 0.6030 0.0000 (  7665 PWs)   bands (ev):

   -64.4854 -64.3551 -31.3636 -31.3277 -31.1985 -31.1458 -31.0066 -30.9426
   -21.2904 -20.9328 -16.2367 -16.2216 -16.2190 -16.2173 -16.2151 -16.2095
   -16.1734 -16.1003 -16.0963 -16.0870 -16.0750 -16.0748 -16.0290 -15.9907
    -7.3825  -3.9127  -3.8753  -3.5224  -3.4377  -3.2911  -3.0039  -1.5756
    -1.4862  -0.4329   3.5114   4.3467   5.0382   6.7902   6.9179   7.0392
     8.5339   8.8566  11.0077

     the Fermi energy is     4.6004 ev

!    total energy              =   -1470.77587589 Ry
     estimated scf accuracy    <          2.9E-15 Ry
     smearing contrib. (-TS)   =       0.00005937 Ry
     internal energy E=F+TS    =   -1470.77593526 Ry

     The total energy is F=E-TS. E is the sum of the following terms:
     one-electron contribution =   -7544.80867658 Ry
     hartree contribution      =    3816.53954911 Ry
     xc contribution           =    -157.90530816 Ry
     ewald contribution        =    2415.39850038 Ry

     convergence has been achieved in  36 iterations

     negative rho (up, down):  7.242E-04 0.000E+00

     Forces acting on atoms (cartesian axes, Ry/au):

     atom    1 type  1   force =    -0.00000000   -0.00000000   -0.00030795
     atom    2 type  2   force =     0.00000000    0.00000000    0.00016064
     atom    3 type  1   force =    -0.00000000   -0.00000000   -0.00029773
     atom    4 type  3   force =     0.00000000    0.00000000    0.00040544
     atom    5 type  3   force =     0.00000000    0.00000000    0.00003961

     Total force =     0.000613     Total SCF correction =     0.000000

     Computing stress (Cartesian axis) and pressure

     negative rho (up, down):  7.242E-04 0.000E+00
          total   stress  (Ry/bohr**3)                   (kbar)     P=       -1.75
   0.00000658  -0.00000000   0.00000000            0.97       -0.00        0.00
  -0.00000000   0.00000658   0.00000000           -0.00        0.97        0.00
   0.00000000   0.00000000  -0.00004875            0.00        0.00       -7.17

     Writing output data file /scratch/as3359/Ta2CF2_loop/Ta.save/

     General routines

     Parallel routines

   This run was terminated on:  19:39:58   7Apr2022

   JOB DONE.