     Program PWSCF v.6.8 starts on  7Apr2022 at 19:39:59

     R & G space division:  proc/nbgrp/npool/nimage =       2

     Reading input from Ta2CF2.relax.in
Warning: card  &CELL ignored
Warning: card     CELL_DYNAMICS='BFGS', CELL_DOFREE ='2DXY' ignored
Warning: card  / ignored

     Current dimensions of program PWSCF are:
     Max number of different atomic species (ntypx) = 10
     Max number of k-points (npk) =  40000
     Max angular momentum in pseudopotentials (lmaxx) =  4
     file Ta.pbesol-spfn-rrkjus_psl.1.0.0.UPF: wavefunction(s)  5S 5P renormalized
     file F.pbesol-n-rrkjus_psl.1.0.0.UPF: wavefunction(s)  2S renormalized
     Message from routine setup:
     using ibrav=0 with symmetry is DISCOURAGED, use correct ibrav instead

     Subspace diagonalization in iterative solution of the eigenvalue problem:
     a serial algorithm will be used

     Using Slab Decomposition

     bravais-lattice index     =            0
     lattice parameter (alat)  =       5.8997  a.u.
     unit-cell volume          =     978.1581 (a.u.)^3
     number of atoms/cell      =            5
     number of atomic types    =            3
     number of electrons       =        72.00
     number of Kohn-Sham states=           43
     kinetic-energy cutoff     =      60.0000  Ry
     charge density cutoff     =     300.0000  Ry
     scf convergence threshold =      1.0E-12
     mixing beta               =       0.7000
     number of iterations used =            8  plain     mixing
     energy convergence thresh.=      1.0E-04
     force convergence thresh. =      1.0E-03
     Exchange-correlation= PBESOL
                           (   1   4  10   8   0   0   0)
     nstep                     =           50

     celldm(1)=   5.899700  celldm(2)=   0.000000  celldm(3)=   0.000000
     celldm(4)=   0.000000  celldm(5)=   0.000000  celldm(6)=   0.000000

     crystal axes: (cart. coord. in units of alat)
               a(1) = (   0.957456   0.000000   0.000000 )
               a(2) = (  -0.478728   0.829181   0.000000 )
               a(3) = (   0.000000   0.000000   6.000000 )

     reciprocal axes: (cart. coord. in units 2 pi/alat)
               b(1) = (  1.044435  0.603005  0.000000 )
               b(2) = (  0.000000  1.206009  0.000000 )
               b(3) = (  0.000000  0.000000  0.166667 )

     PseudoPot. # 1 for Ta read from file:
     /shared/home/as3359/pseudo/Ta.pbesol-spfn-rrkjus_psl.1.0.0.UPF
     MD5 check sum: f099565ffaca9b150a52e9412a28e20b
     Pseudo is Ultrasoft + core correction, Zval = 27.0
     Generated using &quot;atomic&quot; code by A. Dal Corso  v.6.3
     Using radial grid of 1273 points,  8 beta functions with:
                l(1) =   0
                l(2) =   0
                l(3) =   1
                l(4) =   1
                l(5) =   2
                l(6) =   2
                l(7) =   3
                l(8) =   3
     Q(r) pseudized with 0 coefficients

     PseudoPot. # 2 for C  read from file:
     /shared/home/as3359/pseudo/C.pbesol-n-rrkjus_psl.1.0.0.UPF
     MD5 check sum: 05995be603a8a7c99da3dc4413f31573
     Pseudo is Ultrasoft + core correction, Zval =  4.0
     Generated using &quot;atomic&quot; code by A. Dal Corso  v.6.3MaX
     Using radial grid of 1073 points,  4 beta functions with:
                l(1) =   0
                l(2) =   0
                l(3) =   1
                l(4) =   1
     Q(r) pseudized with 0 coefficients

     PseudoPot. # 3 for F  read from file:
     /shared/home/as3359/pseudo/F.pbesol-n-rrkjus_psl.1.0.0.UPF
     MD5 check sum: 56b7518b93d9f54031eb04610776f7c7
     Pseudo is Ultrasoft + core correction, Zval =  7.0
     Generated using &quot;atomic&quot; code by A. Dal Corso  v.6.3MaX
     Using radial grid of 1105 points,  4 beta functions with:
                l(1) =   0
                l(2) =   0
                l(3) =   1
                l(4) =   1
     Q(r) pseudized with 0 coefficients

     atomic species   valence    mass     pseudopotential
        Ta            27.00   180.94788     Ta( 1.00)
        C              4.00    12.01070     C ( 1.00)
        F              7.00    18.99840     F ( 1.00)

      6 Sym. Ops. (no inversion) found

   Cartesian axes

     site n.     atom                  positions (alat units)
         1           Ta  tau(   1) = (   0.0000000   0.5527873   0.0711408  )
         2           C   tau(   2) = (   0.0000000   0.0000000   0.5006731  )
         3           Ta  tau(   3) = (   0.4787279   0.2763937   0.8897214  )
         4           F   tau(   4) = (   0.0000000   0.0000000   1.3627847  )
         5           F   tau(   5) = (   0.4787279   0.2763937  -0.3951135  )

     number of k points=    19  Marzari-Vanderbilt smearing, width (Ry)=  0.0010
                       cart. coord. in units 2pi/alat
        k(    1) = (   0.0000000   0.0000000   0.0000000), wk =   0.0138889
        k(    2) = (   0.0000000   0.1005008   0.0000000), wk =   0.0833333
        k(    3) = (   0.0000000   0.2010016   0.0000000), wk =   0.0833333
        k(    4) = (   0.0000000   0.3015023   0.0000000), wk =   0.0833333
        k(    5) = (   0.0000000   0.4020031   0.0000000), wk =   0.0833333
        k(    6) = (   0.0000000   0.5025039   0.0000000), wk =   0.0833333
        k(    7) = (   0.0000000  -0.6030047   0.0000000), wk =   0.0416667
        k(    8) = (   0.0870362   0.1507512   0.0000000), wk =   0.0833333
        k(    9) = (   0.0870362   0.2512519   0.0000000), wk =   0.1666667
        k(   10) = (   0.0870362   0.3517527   0.0000000), wk =   0.1666667
        k(   11) = (   0.0870362   0.4522535   0.0000000), wk =   0.1666667
        k(   12) = (   0.0870362   0.5527543   0.0000000), wk =   0.1666667
        k(   13) = (   0.1740725   0.3015023   0.0000000), wk =   0.0833333
        k(   14) = (   0.1740725   0.4020031   0.0000000), wk =   0.1666667
        k(   15) = (   0.1740725   0.5025039   0.0000000), wk =   0.1666667
        k(   16) = (   0.1740725   0.6030047   0.0000000), wk =   0.0833333
        k(   17) = (   0.2611087   0.4522535   0.0000000), wk =   0.0833333
        k(   18) = (   0.2611087   0.5527543   0.0000000), wk =   0.1666667
        k(   19) = (   0.3481449   0.6030047   0.0000000), wk =   0.0277778

     Check: negative core charge=   -0.000002

     Initial potential from superposition of free atoms

     starting charge   71.99842, renormalised to   72.00000

     negative rho (up, down):  6.274E-04 0.000E+00
     Starting wfcs are   46 randomized atomic wfcs

     Self-consistent Calculation

     iteration #  1     ecut=    60.00 Ry     beta= 0.70
     CG style diagonalization
     ethr =  1.00E-02,  avg # of iterations =  2.2

     negative rho (up, down):  1.732E-04 0.000E+00

     total energy              =   -1470.06521477 Ry
     estimated scf accuracy    <       1.20492129 Ry

[...]

     iteration #  8     ecut=    60.00 Ry     beta= 0.70
     CG style diagonalization
     ethr =  3.18E-06,  avg # of iterations =  3.8
     Minimization algorithm failed to find Fermi energy: reverting to bisection
     Possible cause: smearing is larger than the electronic band-gap.

[...]

     iteration # 17     ecut=    60.00 Ry     beta= 0.70
     CG style diagonalization
     c_bands:  1 eigenvalues not converged
     ethr =  1.99E-11,  avg # of iterations =  4.8

[...]

     iteration # 20     ecut=    60.00 Ry     beta= 0.70
     CG style diagonalization
     c_bands:  1 eigenvalues not converged
     c_bands:  1 eigenvalues not converged
     ethr =  2.59E-13,  avg # of iterations =  4.5

[...]

     End of self-consistent calculation

          k = 0.0000 0.0000 0.0000 (  7569 PWs)   bands (ev):

   -64.5622 -64.4225 -31.5243 -31.0541 -30.6909 -30.6909 -30.5015 -30.5015
   -21.5224 -21.1761 -16.2564 -16.2423 -16.2423 -16.2180 -16.2110 -16.2110
   -16.1670 -16.1115 -16.0913 -16.0913 -16.0792 -16.0792 -16.0438 -15.9695
    -9.1755  -4.8984  -3.1490  -2.7268  -2.7268  -2.3126  -2.3126  -1.2064
     0.3441   0.3441   2.3670   3.9155   3.9155   5.9037   5.9037   5.9078
     6.2999   6.6777   6.6777

[...]

     the Fermi energy is     4.6201 ev

!    total energy              =   -1470.77583667 Ry
     estimated scf accuracy    <          4.6E-13 Ry
     smearing contrib. (-TS)   =      -0.00002095 Ry
     internal energy E=F+TS    =   -1470.77581571 Ry

     The total energy is F=E-TS. E is the sum of the following terms:
     one-electron contribution =   -7544.79831806 Ry
     hartree contribution      =    3816.52915903 Ry
     xc contribution           =    -157.90524553 Ry
     ewald contribution        =    2415.39858885 Ry

     convergence has been achieved in  24 iterations

[...]

     Forces acting on atoms (cartesian axes, Ry/au):

     atom    1 type  1   force =    -0.00000000   -0.00000000   -0.00119739
     atom    2 type  2   force =     0.00000000    0.00000000    0.00071775
     atom    3 type  1   force =     0.00000000    0.00000000    0.00048600
     atom    4 type  3   force =     0.00000000    0.00000000    0.00006833
     atom    5 type  3   force =     0.00000000    0.00000000   -0.00007469

     Total force =     0.001482     Total SCF correction =     0.000008

     Computing stress (Cartesian axis) and pressure

     negative rho (up, down):  7.244E-04 0.000E+00
          total   stress  (Ry/bohr**3)                   (kbar)     P=       -1.68
   0.00000569  -0.00000000   0.00000000            0.84       -0.00        0.00
  -0.00000000   0.00000569   0.00000000           -0.00        0.84        0.00
   0.00000000   0.00000000  -0.00004574            0.00        0.00       -6.73

     BFGS Geometry Optimization
     Energy error            =      0.0E+00 Ry
     Gradient error          =      1.2E-03 Ry/Bohr

     number of scf cycles    =   1
     number of bfgs steps    =   0

     energy             new  =   -1470.7758366683 Ry

     new trust radius        =       0.0011973892 bohr
     new conv_thr            =            1.0E-12 Ry

ATOMIC_POSITIONS (alat)
Ta           -0.0000000000        0.5527873000        0.0709378424
C             0.0000000000        0.0000000000        0.5007947589
Ta            0.4787279000        0.2763937000        0.8898037770
F             0.0000000000        0.0000000000        1.3627962815
F             0.4787279000        0.2763937000       -0.3951261597

     Writing output data file /scratch/as3359/Ta2CF2_loop/Ta.save/
     NEW-OLD atomic charge density approx. for the potential

     Check: negative core charge=   -0.000002

[...]

     Self-consistent Calculation

[...]

     Threshold (ethr) on eigenvalues was too large:
     Diagonalizing with lowered threshold

     CG style diagonalization
     ethr =  1.37E-09,  avg # of iterations =  4.4
     Minimization algorithm failed to find Fermi energy: reverting to bisection
     Possible cause: smearing is larger than the electronic band-gap.

[...]

     iteration #  3     ecut=    60.00 Ry     beta= 0.70
     CG style diagonalization
     ethr =  8.83E-10,  avg # of iterations =  3.5

[...]

     total energy              =   -1470.77583819 Ry
     estimated scf accuracy    <          1.4E-12 Ry

     iteration # 11     ecut=    60.00 Ry     beta= 0.70
     CG style diagonalization
     ethr =  1.00E-13,  avg # of iterations =  3.2
     Minimization algorithm failed to find Fermi energy: reverting to bisection
     Possible cause: smearing is larger than the electronic band-gap.

[...]

     End of self-consistent calculation

[...]

          k = 0.3481 0.6030 0.0000 (  7665 PWs)   bands (ev):

   -64.4893 -64.3527 -31.3665 -31.3297 -31.1979 -31.1443 -31.0064 -30.9427
   -21.2925 -20.9311 -16.2405 -16.2254 -16.2233 -16.2211 -16.2190 -16.2134
   -16.1776 -16.0982 -16.0942 -16.0851 -16.0725 -16.0722 -16.0257 -15.9874
    -7.3790  -3.9119  -3.8777  -3.5229  -3.4360  -3.2929  -3.0022  -1.5737
    -1.4847  -0.4306   3.5162   4.3464   5.0392   6.7886   6.9184   7.0419
     8.5303   8.8591  11.0044

     the Fermi energy is     4.6234 ev

!    total energy              =   -1470.77583819 Ry
     estimated scf accuracy    <          1.1E-13 Ry
     smearing contrib. (-TS)   =      -0.00002097 Ry
     internal energy E=F+TS    =   -1470.77581722 Ry

     The total energy is F=E-TS. E is the sum of the following terms:
     one-electron contribution =   -7543.89770091 Ry
     hartree contribution      =    3816.08371066 Ry
     xc contribution           =    -157.90487518 Ry
     ewald contribution        =    2414.94304821 Ry

     convergence has been achieved in  11 iterations

     negative rho (up, down):  7.247E-04 0.000E+00

     Forces acting on atoms (cartesian axes, Ry/au):

     atom    1 type  1   force =     0.00000000    0.00000000   -0.00037001
     atom    2 type  2   force =     0.00000000    0.00000000    0.00026765
     atom    3 type  1   force =     0.00000000    0.00000000    0.00033985
     atom    4 type  3   force =     0.00000000    0.00000000    0.00012359
     atom    5 type  3   force =     0.00000000    0.00000000   -0.00036108

     Total force =     0.000685     Total SCF correction =     0.000003

     Computing stress (Cartesian axis) and pressure

     negative rho (up, down):  7.247E-04 0.000E+00
          total   stress  (Ry/bohr**3)                   (kbar)     P=       -1.78
   0.00000503  -0.00000000   0.00000000            0.74       -0.00        0.00
  -0.00000000   0.00000503   0.00000000           -0.00        0.74        0.00
   0.00000000   0.00000000  -0.00004640            0.00        0.00       -6.83

     Energy error            =      1.5E-06 Ry
     Gradient error          =      3.7E-04 Ry/Bohr

     bfgs converged in   2 scf cycles and   1 bfgs steps
     (criteria: energy <  1.0E-04 Ry, force <  1.0E-03 Ry/Bohr)

     End of BFGS Geometry Optimization

     Final energy             =   -1470.7758381877 Ry

     File /scratch/as3359/Ta2CF2_loop/Ta.bfgs deleted, as requested
Begin final coordinates

ATOMIC_POSITIONS (alat)
Ta           -0.0000000000        0.5527873000        0.0709378424
C             0.0000000000        0.0000000000        0.5007947589
Ta            0.4787279000        0.2763937000        0.8898037770
F             0.0000000000        0.0000000000        1.3627962815
F             0.4787279000        0.2763937000       -0.3951261597
End final coordinates

     Writing output data file /scratch/as3359/Ta2CF2_loop/Ta.save/

     General routines

     Parallel routines

   This run was terminated on:  19:43: 1   7Apr2022

   JOB DONE.