     Program PWSCF v.6.8 starts on 15Apr2022 at  3:42:18

     R & G space division:  proc/nbgrp/npool/nimage =       2

     Reading input from Ta3C2.scf.vcrelax1.in

     Current dimensions of program PWSCF are:
     Max number of different atomic species (ntypx) = 10
     Max number of k-points (npk) =  40000
     Max angular momentum in pseudopotentials (lmaxx) =  4
     file Ta.pbesol-spfn-rrkjus_psl.1.0.0.UPF: wavefunction(s)  5S 5P renormalized

     Subspace diagonalization in iterative solution of the eigenvalue problem:
     a serial algorithm will be used

     Using Slab Decomposition

     bravais-lattice index     =            0
     lattice parameter (alat)  =       5.5500  a.u.
     unit-cell volume          =    1596.6788 (a.u.)^3
     number of atoms/cell      =            6
     number of atomic types    =            3
     number of electrons       =        90.00
     number of Kohn-Sham states=           54
     kinetic-energy cutoff     =      60.0000  Ry
     charge density cutoff     =     300.0000  Ry
     scf convergence threshold =      1.0E-12
     mixing beta               =       0.7000
     number of iterations used =            8  plain     mixing
     energy convergence thresh.=      1.0E-04
     force convergence thresh. =      1.0E-03
     press convergence thresh. =      5.0E-01
     Exchange-correlation= PBESOL
                           (   1   4  10   8   0   0   0)
     nstep                     =           50

     celldm(1)=   5.550000  celldm(2)=   0.000000  celldm(3)=   0.000000
     celldm(4)=   0.000000  celldm(5)=   0.000000  celldm(6)=   0.000000

     crystal axes: (cart. coord. in units of alat)
               a(1) = (   1.038323  -0.000115   0.000000 )
               a(2) = (  -0.519199   0.899568   0.000000 )
               a(3) = (   0.000000   0.000000  10.000000 )

     reciprocal axes: (cart. coord. in units 2 pi/alat)
               b(1) = (  0.963153  0.555898  0.000000 )
               b(2) = (  0.000123  1.111716  0.000000 )
               b(3) = (  0.000000  0.000000  0.100000 )

     PseudoPot. # 1 for Ta read from file:
     /shared/home/as3359/pseudo/Ta.pbesol-spfn-rrkjus_psl.1.0.0.UPF
     MD5 check sum: f099565ffaca9b150a52e9412a28e20b
     Pseudo is Ultrasoft + core correction, Zval = 27.0
     Generated using &quot;atomic&quot; code by A. Dal Corso  v.6.3
     Using radial grid of 1273 points,  8 beta functions with:
                l(1) =   0
                l(2) =   0
                l(3) =   1
                l(4) =   1
                l(5) =   2
                l(6) =   2
                l(7) =   3
                l(8) =   3
     Q(r) pseudized with 0 coefficients

     PseudoPot. # 2 for C  read from file:
     /shared/home/as3359/pseudo/C.pbesol-n-rrkjus_psl.1.0.0.UPF
     MD5 check sum: 05995be603a8a7c99da3dc4413f31573
     Pseudo is Ultrasoft + core correction, Zval =  4.0
     Generated using &quot;atomic&quot; code by A. Dal Corso  v.6.3MaX
     Using radial grid of 1073 points,  4 beta functions with:
                l(1) =   0
                l(2) =   0
                l(3) =   1
                l(4) =   1
     Q(r) pseudized with 0 coefficients

     PseudoPot. # 3 for H  read from file:
     /shared/home/as3359/pseudo/H.pbesol-rrkjus_psl.0.1.UPF
     MD5 check sum: 1dbb1a5c48b1283557b8117eb856a7ca
     Pseudo is Ultrasoft, Zval =  1.0
     Generated using "atomic" code by A. Dal Corso  v.5.0.2 svn rev. 9415
     Using radial grid of  929 points,  2 beta functions with:
                l(1) =   0
                l(2) =   0
     Q(r) pseudized with 0 coefficients

     atomic species   valence    mass     pseudopotential
        Ta            27.00   180.94788     Ta( 1.00)
        C              4.00    12.01070     C ( 1.00)
        H              1.00     1.00000     H ( 1.00)

     No symmetry found

   Cartesian axes

     site n.     atom                  positions (alat units)
         1           Ta  tau(   1) = (  -0.0318903   0.6043570   0.5998417  )
         2           C   tau(   2) = (  -0.0318451   0.0046950   1.0123183  )
         3           Ta  tau(   3) = (   0.4873834   0.3045793   1.4551225  )
         4           C   tau(   4) = (  -0.0315990   0.6046742   1.9088526  )
         5           Ta  tau(   5) = (  -0.0314813   0.0050388   2.3418107  )
         6           H   tau(   6) = (   0.4875612   0.3049076   2.6744449  )

     number of k points=   113  Marzari-Vanderbilt smearing, width (Ry)=  0.0010

     Number of k-points >= 100: set verbosity='high' to print them.

     Check: negative core charge=   -0.000002

     Initial potential from superposition of free atoms

     starting charge   89.99759, renormalised to   90.00000

     negative rho (up, down):  8.248E-04 0.000E+00
     Starting wfcs are   60 randomized atomic wfcs

     Self-consistent Calculation

     iteration #  1     ecut=    60.00 Ry     beta= 0.70
     Davidson diagonalization with overlap
     ethr =  1.00E-02,  avg # of iterations =  2.2

     negative rho (up, down):  7.003E-04 0.000E+00

     total energy              =   -2066.00461417 Ry
     estimated scf accuracy    <       2.24706856 Ry

[...]

     iteration #  7     ecut=    60.00 Ry     beta= 0.70
     Davidson diagonalization with overlap
     c_bands:  1 eigenvalues not converged
     ethr =  2.74E-04,  avg # of iterations =  3.5

[...]

     End of self-consistent calculation

     Number of k-points >= 100: set verbosity='high' to print the bands.

     the Fermi energy is     2.5976 ev

!    total energy              =   -2067.43260866 Ry
     estimated scf accuracy    <          5.3E-13 Ry
     smearing contrib. (-TS)   =      -0.00000469 Ry
     internal energy E=F+TS    =   -2067.43260397 Ry

     The total energy is F=E-TS. E is the sum of the following terms:
     one-electron contribution =  -19968.66177309 Ry
     hartree contribution      =   10036.17895452 Ry
     xc contribution           =    -211.37443436 Ry
     ewald contribution        =    8076.42464895 Ry

     convergence has been achieved in  27 iterations

[...]

     Forces acting on atoms (cartesian axes, Ry/au):

     atom    1 type  1   force =     0.00002102   -0.00002059    0.00021059
     atom    2 type  2   force =     0.00009551    0.00020585    0.00004215
     atom    3 type  1   force =     0.00007653    0.00005865   -0.00002306
     atom    4 type  2   force =    -0.00011988   -0.00022172   -0.00006369
     atom    5 type  1   force =    -0.00014484   -0.00001611    0.00006128
     atom    6 type  3   force =     0.00007166   -0.00000608   -0.00022727

     Total force =     0.000508     Total SCF correction =     0.000010

     Computing stress (Cartesian axis) and pressure

     negative rho (up, down):  8.345E-04 0.000E+00
          total   stress  (Ry/bohr**3)                   (kbar)     P=       -2.61
  -0.00000578   0.00000053  -0.00000051           -0.85        0.08       -0.07
   0.00000053  -0.00000809  -0.00000042            0.08       -1.19       -0.06
  -0.00000051  -0.00000042  -0.00003940           -0.07       -0.06       -5.80

     BFGS Geometry Optimization
     Energy error            =      0.0E+00 Ry
     Gradient error          =      2.3E-04 Ry/Bohr
     Cell gradient error     =      1.2E+00 kbar

     number of scf cycles    =   1
     number of bfgs steps    =   0

     enthalpy           new  =   -2067.4326086642 Ry

     new trust radius        =       0.0016204981 bohr
     new conv_thr            =            1.0E-12 Ry

     new unit-cell volume =   1596.12494 a.u.^3 (   236.52131 Ang^3 )
     density =      3.98680 g/cm^3

CELL_PARAMETERS (alat=  5.55000000)
   1.038172699  -0.000101196   0.000000000
  -0.519112272   0.899379048   0.000000000
   0.000000000   0.000000000  10.000000000

ATOMIC_POSITIONS (alat)
Ta           -0.0318738987        0.6042305837        0.5998796448
C            -0.0318232274        0.0047307108        1.0123258943
Ta            0.4873307521        0.3045346914        1.4551183449
C            -0.0316080217        0.6045114896        1.9088411238
Ta           -0.0315027745        0.0050344617        2.3418217417
H             0.4875076542        0.3048512658        2.6744039506

     Writing output data file /scratch/as3359/Ta3C2H_loop/Ta.save/
     NEW-OLD atomic charge density approx. for the potential

[...]

     negative rho (up, down):  8.369E-04 0.000E+00
     extrapolated charge   89.96877, renormalised to   90.00000

[...]

     Energy error            =      3.5E-06 Ry
     Gradient error          =      1.6E-04 Ry/Bohr
     Cell gradient error     =      7.8E-01 kbar

     number of scf cycles    =   2
     number of bfgs steps    =   1

     enthalpy           old  =   -2067.4326086642 Ry
     enthalpy           new  =   -2067.4326121144 Ry

     CASE: enthalpy          _new < enthalpy          _old

     new trust radius        =       0.0017826020 bohr
     new conv_thr            =            1.0E-14 Ry

     new unit-cell volume =   1595.53226 a.u.^3 (   236.43349 Ang^3 )
     density =      3.98828 g/cm^3

[...]

ATOMIC_POSITIONS (alat)
Ta           -0.0318487665        0.6041037721        0.5998679959
C            -0.0317965894        0.0047669961        1.0123546171
Ta            0.4872798121        0.3044896188        1.4551293792
C            -0.0316192899        0.6043356834        1.9088192358
Ta           -0.0315348986        0.0050190069        2.3418637730
H             0.4874542766        0.3047855248        2.6743556990

     Writing output data file /scratch/as3359/Ta3C2H_loop/Ta.save/
     NEW-OLD atomic charge density approx. for the potential

[...]

     negative rho (up, down):  8.387E-04 0.000E+00
     extrapolated charge   89.96657, renormalised to   90.00000

[...]

     Energy error            =      2.1E-06 Ry
     Gradient error          =      2.0E-04 Ry/Bohr
     Cell gradient error     =      3.5E-01 kbar

     bfgs converged in   3 scf cycles and   2 bfgs steps
     (criteria: energy <  1.0E-04 Ry, force <  1.0E-03Ry/Bohr, cell <  5.0E-01kbar)

     End of BFGS Geometry Optimization

     Final enthalpy           =   -2067.4326142503 Ry

     File /scratch/as3359/Ta3C2H_loop/Ta.bfgs deleted, as requested
Begin final coordinates
     new unit-cell volume =   1595.53226 a.u.^3 (   236.43349 Ang^3 )
     density =      3.98828 g/cm^3

CELL_PARAMETERS (alat=  5.55000000)
   1.038018132  -0.000083954   0.000000000
  -0.519020068   0.899170346   0.000000000
   0.000000000   0.000000000  10.000000000

ATOMIC_POSITIONS (alat)
Ta           -0.0318487665        0.6041037721        0.5998679959
C            -0.0317965894        0.0047669961        1.0123546171
Ta            0.4872798121        0.3044896188        1.4551293792
C            -0.0316192899        0.6043356834        1.9088192358
Ta           -0.0315348986        0.0050190069        2.3418637730
H             0.4874542766        0.3047855248        2.6743556990
End final coordinates

     Writing output data file /scratch/as3359/Ta3C2H_loop/Ta.save/

     Final scf calculation at the relaxed structure.
     The G-vectors are recalculated for the final unit cell
     Results may differ from those at the preceding step.

     Using Slab Decomposition

     bravais-lattice index     =            0
     lattice parameter (alat)  =       5.5500  a.u.
     unit-cell volume          =    1595.5323 (a.u.)^3
     number of atoms/cell      =            6
     number of atomic types    =            3
     number of electrons       =        90.00
     number of Kohn-Sham states=           54
     kinetic-energy cutoff     =      60.0000  Ry
     charge density cutoff     =     300.0000  Ry
     scf convergence threshold =      1.0E-14
     mixing beta               =       0.7000
     number of iterations used =            8  plain     mixing
     press convergence thresh. =      5.0E-01
     Exchange-correlation= PBESOL
                           (   1   4  10   8   0   0   0)

     celldm(1)=   5.550000  celldm(2)=   0.000000  celldm(3)=   0.000000
     celldm(4)=   0.000000  celldm(5)=   0.000000  celldm(6)=   0.000000

     crystal axes: (cart. coord. in units of alat)
               a(1) = (   1.038018  -0.000084   0.000000 )
               a(2) = (  -0.519020   0.899170   0.000000 )
               a(3) = (   0.000000   0.000000  10.000000 )

     reciprocal axes: (cart. coord. in units 2 pi/alat)
               b(1) = (  0.963419  0.556106  0.000000 )
               b(2) = (  0.000090  1.112188  0.000000 )
               b(3) = (  0.000000  0.000000  0.100000 )

     PseudoPot. # 1 for Ta read from file:
     /shared/home/as3359/pseudo/Ta.pbesol-spfn-rrkjus_psl.1.0.0.UPF
     MD5 check sum: f099565ffaca9b150a52e9412a28e20b
     Pseudo is Ultrasoft + core correction, Zval = 27.0
     Generated using &quot;atomic&quot; code by A. Dal Corso  v.6.3
     Using radial grid of 1273 points,  8 beta functions with:
                l(1) =   0
                l(2) =   0
                l(3) =   1
                l(4) =   1
                l(5) =   2
                l(6) =   2
                l(7) =   3
                l(8) =   3
     Q(r) pseudized with 0 coefficients

     PseudoPot. # 2 for C  read from file:
     /shared/home/as3359/pseudo/C.pbesol-n-rrkjus_psl.1.0.0.UPF
     MD5 check sum: 05995be603a8a7c99da3dc4413f31573
     Pseudo is Ultrasoft + core correction, Zval =  4.0
     Generated using &quot;atomic&quot; code by A. Dal Corso  v.6.3MaX
     Using radial grid of 1073 points,  4 beta functions with:
                l(1) =   0
                l(2) =   0
                l(3) =   1
                l(4) =   1
     Q(r) pseudized with 0 coefficients

     PseudoPot. # 3 for H  read from file:
     /shared/home/as3359/pseudo/H.pbesol-rrkjus_psl.0.1.UPF
     MD5 check sum: 1dbb1a5c48b1283557b8117eb856a7ca
     Pseudo is Ultrasoft, Zval =  1.0
     Generated using "atomic" code by A. Dal Corso  v.5.0.2 svn rev. 9415
     Using radial grid of  929 points,  2 beta functions with:
                l(1) =   0
                l(2) =   0
     Q(r) pseudized with 0 coefficients

     atomic species   valence    mass     pseudopotential
        Ta            27.00   180.94788     Ta( 1.00)
        C              4.00    12.01070     C ( 1.00)
        H              1.00     1.00000     H ( 1.00)

     No symmetry found

   Cartesian axes

     site n.     atom                  positions (alat units)
         1           Ta  tau(   1) = (  -0.0318488   0.6041038   0.5998680  )
         2           C   tau(   2) = (  -0.0317966   0.0047670   1.0123546  )
         3           Ta  tau(   3) = (   0.4872798   0.3044896   1.4551294  )
         4           C   tau(   4) = (  -0.0316193   0.6043357   1.9088192  )
         5           Ta  tau(   5) = (  -0.0315349   0.0050190   2.3418638  )
         6           H   tau(   6) = (   0.4874543   0.3047855   2.6743557  )

     number of k points=   113  Marzari-Vanderbilt smearing, width (Ry)=  0.0010

     Number of k-points >= 100: set verbosity='high' to print them.

     Check: negative core charge=   -0.000002

     Initial potential from superposition of free atoms

     starting charge   89.99759, renormalised to   90.00000

     negative rho (up, down):  8.328E-04 0.000E+00
     Starting wfcs are   60 randomized atomic wfcs

     Self-consistent Calculation

     iteration #  1     ecut=    60.00 Ry     beta= 0.70
     Davidson diagonalization with overlap
     c_bands:  1 eigenvalues not converged
     c_bands:  1 eigenvalues not converged
     c_bands:  1 eigenvalues not converged
     c_bands:  1 eigenvalues not converged
     c_bands:  1 eigenvalues not converged
     c_bands:  1 eigenvalues not converged
     c_bands:  1 eigenvalues not converged
     c_bands:  1 eigenvalues not converged
     c_bands:  1 eigenvalues not converged
     c_bands:  1 eigenvalues not converged
     c_bands:  1 eigenvalues not converged
     c_bands:  1 eigenvalues not converged
     c_bands:  1 eigenvalues not converged
     c_bands:  1 eigenvalues not converged
     c_bands:  1 eigenvalues not converged
     c_bands:  1 eigenvalues not converged
     c_bands:  1 eigenvalues not converged
     c_bands:  1 eigenvalues not converged
     c_bands:  1 eigenvalues not converged
     c_bands:  1 eigenvalues not converged
     c_bands:  3 eigenvalues not converged
     c_bands:  2 eigenvalues not converged
     c_bands:  1 eigenvalues not converged
     c_bands:  2 eigenvalues not converged
     c_bands:  1 eigenvalues not converged
     c_bands:  2 eigenvalues not converged
     c_bands:  2 eigenvalues not converged
     c_bands:  1 eigenvalues not converged
     c_bands:  1 eigenvalues not converged
     c_bands:  1 eigenvalues not converged
     c_bands:  1 eigenvalues not converged
     c_bands:  1 eigenvalues not converged
     c_bands:  2 eigenvalues not converged
     c_bands:  1 eigenvalues not converged
     c_bands:  1 eigenvalues not converged
     c_bands:  1 eigenvalues not converged
     c_bands:  2 eigenvalues not converged
     c_bands:  2 eigenvalues not converged
     c_bands:  1 eigenvalues not converged
     c_bands:  1 eigenvalues not converged
     c_bands:  1 eigenvalues not converged
     c_bands:  1 eigenvalues not converged
     c_bands:  1 eigenvalues not converged
     c_bands:  1 eigenvalues not converged
     c_bands:  1 eigenvalues not converged
     c_bands:  1 eigenvalues not converged
     c_bands:  1 eigenvalues not converged
     c_bands:  1 eigenvalues not converged
     c_bands:  2 eigenvalues not converged
     c_bands:  1 eigenvalues not converged
     c_bands:  1 eigenvalues not converged
     c_bands:  1 eigenvalues not converged
     c_bands:  1 eigenvalues not converged
     c_bands:  1 eigenvalues not converged
     c_bands:  1 eigenvalues not converged
     c_bands:  1 eigenvalues not converged
     c_bands:  1 eigenvalues not converged
     c_bands:  1 eigenvalues not converged
     c_bands:  1 eigenvalues not converged
     c_bands:  1 eigenvalues not converged
[...]
     c_bands:  1 eigenvalues not converged
     c_bands:  1 eigenvalues not converged
     c_bands:  3 eigenvalues not converged
     c_bands:  1 eigenvalues not converged
     c_bands:  1 eigenvalues not converged
     c_bands:  1 eigenvalues not converged
     c_bands:  1 eigenvalues not converged
     c_bands:  1 eigenvalues not converged
     c_bands:  1 eigenvalues not converged
     c_bands:  1 eigenvalues not converged
     c_bands:  1 eigenvalues not converged
     c_bands:  2 eigenvalues not converged
     c_bands:  2 eigenvalues not converged
     c_bands:  1 eigenvalues not converged
     c_bands:  1 eigenvalues not converged
     ethr =  1.00E-06,  avg # of iterations = 18.8

[...]

     iteration #  6     ecut=    60.00 Ry     beta= 0.70
     Davidson diagonalization with overlap
     ethr =  6.15E-04,  avg # of iterations =  3.9
     Minimization algorithm failed to find Fermi energy: reverting to bisection
     Possible cause: smearing is larger than the electronic band-gap.

[...]

     total energy              =   -2067.43257358 Ry
     estimated scf accuracy    <          2.9E-14 Ry

     iteration # 30     ecut=    60.00 Ry     beta= 0.70
     Davidson diagonalization with overlap
     ethr =  1.00E-13,  avg # of iterations =  1.0

[...]

     End of self-consistent calculation

     Number of k-points >= 100: set verbosity='high' to print the bands.

     the Fermi energy is     2.6011 ev

!    total energy              =   -2067.43257358 Ry
     estimated scf accuracy    <          1.0E-14 Ry
     smearing contrib. (-TS)   =      -0.00000211 Ry
     internal energy E=F+TS    =   -2067.43257148 Ry

     The total energy is F=E-TS. E is the sum of the following terms:
     one-electron contribution =  -19981.45310045 Ry
     hartree contribution      =   10042.59692038 Ry
     xc contribution           =    -211.37883652 Ry
     ewald contribution        =    8082.80244511 Ry

     convergence has been achieved in  30 iterations

     negative rho (up, down):  8.416E-04 0.000E+00

     Forces acting on atoms (cartesian axes, Ry/au):

     atom    1 type  1   force =     0.00004616    0.00006998   -0.00020458
     atom    2 type  2   force =     0.00004904    0.00005860    0.00006732
     atom    3 type  1   force =     0.00002884    0.00003090    0.00004414
     atom    4 type  2   force =    -0.00004923   -0.00005087   -0.00001015
     atom    5 type  1   force =    -0.00008944   -0.00006824    0.00017444
     atom    6 type  3   force =     0.00001463   -0.00004036   -0.00007117

     Total force =     0.000344     Total SCF correction =     0.000001

     Computing stress (Cartesian axis) and pressure

     negative rho (up, down):  8.416E-04 0.000E+00
          total   stress  (Ry/bohr**3)                   (kbar)     P=       -2.02
  -0.00000142   0.00000023  -0.00000048           -0.21        0.03       -0.07
   0.00000023  -0.00000254  -0.00000048            0.03       -0.37       -0.07
  -0.00000048  -0.00000048  -0.00003715           -0.07       -0.07       -5.47

     Writing output data file /scratch/as3359/Ta3C2H_loop/Ta.save/

     General routines

     Parallel routines

   This run was terminated on:   4:34:33  15Apr2022

   JOB DONE.