     Program PWSCF v.6.8 starts on 14Apr2022 at 23: 1:12

     R & G space division:  proc/nbgrp/npool/nimage =       2

     Reading input from Ta3C2.vcrelax.in

     Current dimensions of program PWSCF are:
     Max number of different atomic species (ntypx) = 10
     Max number of k-points (npk) =  40000
     Max angular momentum in pseudopotentials (lmaxx) =  4
     file Ta.pbesol-spfn-rrkjus_psl.1.0.0.UPF: wavefunction(s)  5S 5P renormalized

     Subspace diagonalization in iterative solution of the eigenvalue problem:
     a serial algorithm will be used

     Using Slab Decomposition

     bravais-lattice index     =            0
     lattice parameter (alat)  =       5.5500  a.u.
     unit-cell volume          =    1637.9727 (a.u.)^3
     number of atoms/cell      =            6
     number of atomic types    =            3
     number of electrons       =        90.00
     number of Kohn-Sham states=           54
     kinetic-energy cutoff     =      60.0000  Ry
     charge density cutoff     =     300.0000  Ry
     scf convergence threshold =      1.0E-12
     mixing beta               =       0.7000
     number of iterations used =            8  plain     mixing
     energy convergence thresh.=      1.0E-04
     force convergence thresh. =      1.0E-03
     press convergence thresh. =      5.0E-01
     Exchange-correlation= PBESOL
                           (   1   4  10   8   0   0   0)
     nstep                     =           50

     celldm(1)=   5.550000  celldm(2)=   0.000000  celldm(3)=   0.000000
     celldm(4)=   0.000000  celldm(5)=   0.000000  celldm(6)=   0.000000

     crystal axes: (cart. coord. in units of alat)
               a(1) = (   1.051851   0.000006   0.000000 )
               a(2) = (  -0.525920   0.910903   0.000000 )
               a(3) = (   0.000000   0.000000  10.000000 )

     reciprocal axes: (cart. coord. in units 2 pi/alat)
               b(1) = (  0.950702  0.548899  0.000000 )
               b(2) = ( -0.000006  1.097808  0.000000 )
               b(3) = (  0.000000  0.000000  0.100000 )

     PseudoPot. # 1 for Ta read from file:
     /shared/home/as3359/pseudo/Ta.pbesol-spfn-rrkjus_psl.1.0.0.UPF
     MD5 check sum: f099565ffaca9b150a52e9412a28e20b
     Pseudo is Ultrasoft + core correction, Zval = 27.0
     Generated using &quot;atomic&quot; code by A. Dal Corso  v.6.3
     Using radial grid of 1273 points,  8 beta functions with:
                l(1) =   0
                l(2) =   0
                l(3) =   1
                l(4) =   1
                l(5) =   2
                l(6) =   2
                l(7) =   3
                l(8) =   3
     Q(r) pseudized with 0 coefficients

     PseudoPot. # 2 for C  read from file:
     /shared/home/as3359/pseudo/C.pbesol-n-rrkjus_psl.1.0.0.UPF
     MD5 check sum: 05995be603a8a7c99da3dc4413f31573
     Pseudo is Ultrasoft + core correction, Zval =  4.0
     Generated using &quot;atomic&quot; code by A. Dal Corso  v.6.3MaX
     Using radial grid of 1073 points,  4 beta functions with:
                l(1) =   0
                l(2) =   0
                l(3) =   1
                l(4) =   1
     Q(r) pseudized with 0 coefficients

     PseudoPot. # 3 for H  read from file:
     /shared/home/as3359/pseudo/H.pbesol-rrkjus_psl.0.1.UPF
     MD5 check sum: 1dbb1a5c48b1283557b8117eb856a7ca
     Pseudo is Ultrasoft, Zval =  1.0
     Generated using "atomic" code by A. Dal Corso  v.5.0.2 svn rev. 9415
     Using radial grid of  929 points,  2 beta functions with:
                l(1) =   0
                l(2) =   0
     Q(r) pseudized with 0 coefficients

     atomic species   valence    mass     pseudopotential
        Ta            27.00   180.94788     Ta( 1.00)
        C              4.00    12.01070     C ( 1.00)
        H              1.00     1.00000     H ( 1.00)

     No symmetry found

   Cartesian axes

     site n.     atom                  positions (alat units)
         1           Ta  tau(   1) = (   0.0000231   0.6073201   0.6349311  )
         2           C   tau(   2) = (   0.0000093   0.0000234   1.0244802  )
         3           Ta  tau(   3) = (   0.5259269   0.3036382   1.4781889  )
         4           C   tau(   4) = (  -0.0000061   0.6072475   1.9318977  )
         5           Ta  tau(   5) = (  -0.0000199  -0.0000492   2.3214464  )
         6           H   tau(   6) = (   0.3333333   0.3333333   2.6014464  )

     number of k points=   113  Marzari-Vanderbilt smearing, width (Ry)=  0.0010

     Number of k-points >= 100: set verbosity='high' to print them.

     Check: negative core charge=   -0.000002

     Initial potential from superposition of free atoms

     starting charge   89.99759, renormalised to   90.00000

     negative rho (up, down):  8.039E-04 0.000E+00
     Starting wfcs are   60 randomized atomic wfcs

     Self-consistent Calculation

     iteration #  1     ecut=    60.00 Ry     beta= 0.70
     Davidson diagonalization with overlap
     ethr =  1.00E-02,  avg # of iterations =  2.1

     negative rho (up, down):  6.967E-04 0.000E+00

     total energy              =   -2065.74845622 Ry
     estimated scf accuracy    <       2.48758363 Ry

[...]

     iteration # 12     ecut=    60.00 Ry     beta= 0.70
     Davidson diagonalization with overlap
     c_bands:  1 eigenvalues not converged
     ethr =  1.63E-05,  avg # of iterations =  7.5

[...]

     End of self-consistent calculation

     Number of k-points >= 100: set verbosity='high' to print the bands.

     the Fermi energy is     2.4540 ev

!    total energy              =   -2067.36067773 Ry
     estimated scf accuracy    <          1.0E-13 Ry
     smearing contrib. (-TS)   =       0.00000234 Ry
     internal energy E=F+TS    =   -2067.36068007 Ry

     The total energy is F=E-TS. E is the sum of the following terms:
     one-electron contribution =  -19862.58945144 Ry
     hartree contribution      =    9982.37430220 Ry
     xc contribution           =    -211.45739171 Ry
     ewald contribution        =    8024.31186087 Ry

     convergence has been achieved in  27 iterations

[...]

     Forces acting on atoms (cartesian axes, Ry/au):

     atom    1 type  1   force =     0.00155609   -0.00182922   -0.01060907
     atom    2 type  2   force =    -0.00153812    0.00080473    0.01582318
     atom    3 type  1   force =     0.00275473   -0.00022700   -0.01722776
     atom    4 type  2   force =    -0.03367443   -0.00070384   -0.04942090
     atom    5 type  1   force =    -0.08554841   -0.08887423   -0.03494011
     atom    6 type  3   force =     0.11645013    0.09082956    0.09637465

     Total force =     0.227574     Total SCF correction =     0.000004

     Computing stress (Cartesian axis) and pressure

     negative rho (up, down):  8.167E-04 0.000E+00
          total   stress  (Ry/bohr**3)                   (kbar)     P=       14.91
   0.00008538   0.00011330   0.00014487           12.56       16.67       21.31
   0.00011330   0.00005858   0.00009459           16.67        8.62       13.91
   0.00014487   0.00009459   0.00016021           21.31       13.91       23.57

     BFGS Geometry Optimization
     Energy error            =      0.0E+00 Ry
     Gradient error          =      1.2E-01 Ry/Bohr
     Cell gradient error     =      1.7E+01 kbar

     number of scf cycles    =   1
     number of bfgs steps    =   0

     enthalpy           new  =   -2067.3606777335 Ry

     new trust radius        =       0.1763482744 bohr
     new conv_thr            =            1.0E-12 Ry

     new unit-cell volume =   1643.85973 a.u.^3 (   243.59488 Ang^3 )
     density =      3.87103 g/cm^3

CELL_PARAMETERS (alat=  5.55000000)
   1.054095737   0.002985037   0.000000000
  -0.524462813   0.910747740   0.000000000
   0.000000000   0.000000000  10.000000000

ATOMIC_POSITIONS (alat)
Ta            0.0020234605        0.6078802988        0.6330195553
C            -0.0002679326        0.0001678835        1.0273312243
Ta            0.5284068490        0.3055330385        1.4750847998
C            -0.0043668236        0.6079925982        1.9229930341
Ta           -0.0155124695       -0.0161298160        2.3151508854
H             0.3560621638        0.3512147669        2.6188112011

     Writing output data file /scratch/as3359/Ta3C2H_loop/Ta.save/
     NEW-OLD atomic charge density approx. for the potential

[...]

     negative rho (up, down):  7.849E-04 0.000E+00
     extrapolated charge   90.32230, renormalised to   90.00000

[...]

     Energy error            =      3.4E-02 Ry
     Gradient error          =      5.3E-02 Ry/Bohr
     Cell gradient error     =      6.5E+00 kbar

[...]

     enthalpy           old  =   -2067.3606777335 Ry
     enthalpy           new  =   -2067.3948082145 Ry

     CASE: enthalpy          _new < enthalpy          _old

[...]

     WARNING: integrated charge=    90.00037130, expected=    90.00000000

[...]

     WARNING: integrated charge=    89.99998096, expected=    90.00000000

[...]

     number of scf cycles    =  18
     number of bfgs steps    =  17

     enthalpy           old  =   -2067.4340289893 Ry
     enthalpy           new  =   -2067.4340365577 Ry

     CASE: enthalpy          _new < enthalpy          _old

     new trust radius        =       0.0016264941 bohr
     new conv_thr            =            1.0E-14 Ry

     new unit-cell volume =   1596.67883 a.u.^3 (   236.60339 Ang^3 )
     density =      3.98541 g/cm^3

[...]

ATOMIC_POSITIONS (alat)
Ta           -0.0318902659        0.6043569551        0.5998417256
C            -0.0318451015        0.0046950003        1.0123182654
Ta            0.4873834283        0.3045793356        1.4551224503
C            -0.0315989944        0.6046741596        1.9088526386
Ta           -0.0314812548        0.0050387639        2.3418106702
H             0.4875612438        0.3049075585        2.6744449499

     Writing output data file /scratch/as3359/Ta3C2H_loop/Ta.save/
     NEW-OLD atomic charge density approx. for the potential

[...]

     negative rho (up, down):  9.491E-04 0.000E+00
     extrapolated charge   90.00049, renormalised to   90.00000

[...]

     Threshold (ethr) on eigenvalues was too large:
     Diagonalizing with lowered threshold

     Davidson diagonalization with overlap
     ethr =  3.97E-09,  avg # of iterations =  4.7

[...]

     Energy error            =      2.7E-06 Ry
     Gradient error          =      2.6E-04 Ry/Bohr
     Cell gradient error     =      4.3E-01 kbar

     bfgs converged in  19 scf cycles and  18 bfgs steps
     (criteria: energy <  1.0E-04 Ry, force <  1.0E-03Ry/Bohr, cell <  5.0E-01kbar)

     End of BFGS Geometry Optimization

     Final enthalpy           =   -2067.4340392960 Ry

     File /scratch/as3359/Ta3C2H_loop/Ta.bfgs deleted, as requested
Begin final coordinates
     new unit-cell volume =   1596.67883 a.u.^3 (   236.60339 Ang^3 )
     density =      3.98541 g/cm^3

CELL_PARAMETERS (alat=  5.55000000)
   1.038322827  -0.000114969   0.000000000
  -0.519199253   0.899567942   0.000000000
   0.000000000   0.000000000  10.000000000

ATOMIC_POSITIONS (alat)
Ta           -0.0318902659        0.6043569551        0.5998417256
C            -0.0318451015        0.0046950003        1.0123182654
Ta            0.4873834283        0.3045793356        1.4551224503
C            -0.0315989944        0.6046741596        1.9088526386
Ta           -0.0314812548        0.0050387639        2.3418106702
H             0.4875612438        0.3049075585        2.6744449499
End final coordinates

     Writing output data file /scratch/as3359/Ta3C2H_loop/Ta.save/

     Final scf calculation at the relaxed structure.
     The G-vectors are recalculated for the final unit cell
     Results may differ from those at the preceding step.

     Using Slab Decomposition

     bravais-lattice index     =            0
     lattice parameter (alat)  =       5.5500  a.u.
     unit-cell volume          =    1596.6788 (a.u.)^3
     number of atoms/cell      =            6
     number of atomic types    =            3
     number of electrons       =        90.00
     number of Kohn-Sham states=           54
     kinetic-energy cutoff     =      60.0000  Ry
     charge density cutoff     =     300.0000  Ry
     scf convergence threshold =      1.0E-14
     mixing beta               =       0.7000
     number of iterations used =            8  plain     mixing
     press convergence thresh. =      5.0E-01
     Exchange-correlation= PBESOL
                           (   1   4  10   8   0   0   0)

     celldm(1)=   5.550000  celldm(2)=   0.000000  celldm(3)=   0.000000
     celldm(4)=   0.000000  celldm(5)=   0.000000  celldm(6)=   0.000000

     crystal axes: (cart. coord. in units of alat)
               a(1) = (   1.038323  -0.000115   0.000000 )
               a(2) = (  -0.519199   0.899568   0.000000 )
               a(3) = (   0.000000   0.000000  10.000000 )

     reciprocal axes: (cart. coord. in units 2 pi/alat)
               b(1) = (  0.963153  0.555898  0.000000 )
               b(2) = (  0.000123  1.111716  0.000000 )
               b(3) = (  0.000000  0.000000  0.100000 )

     PseudoPot. # 1 for Ta read from file:
     /shared/home/as3359/pseudo/Ta.pbesol-spfn-rrkjus_psl.1.0.0.UPF
     MD5 check sum: f099565ffaca9b150a52e9412a28e20b
     Pseudo is Ultrasoft + core correction, Zval = 27.0
     Generated using &quot;atomic&quot; code by A. Dal Corso  v.6.3
     Using radial grid of 1273 points,  8 beta functions with:
                l(1) =   0
                l(2) =   0
                l(3) =   1
                l(4) =   1
                l(5) =   2
                l(6) =   2
                l(7) =   3
                l(8) =   3
     Q(r) pseudized with 0 coefficients

     PseudoPot. # 2 for C  read from file:
     /shared/home/as3359/pseudo/C.pbesol-n-rrkjus_psl.1.0.0.UPF
     MD5 check sum: 05995be603a8a7c99da3dc4413f31573
     Pseudo is Ultrasoft + core correction, Zval =  4.0
     Generated using &quot;atomic&quot; code by A. Dal Corso  v.6.3MaX
     Using radial grid of 1073 points,  4 beta functions with:
                l(1) =   0
                l(2) =   0
                l(3) =   1
                l(4) =   1
     Q(r) pseudized with 0 coefficients

     PseudoPot. # 3 for H  read from file:
     /shared/home/as3359/pseudo/H.pbesol-rrkjus_psl.0.1.UPF
     MD5 check sum: 1dbb1a5c48b1283557b8117eb856a7ca
     Pseudo is Ultrasoft, Zval =  1.0
     Generated using "atomic" code by A. Dal Corso  v.5.0.2 svn rev. 9415
     Using radial grid of  929 points,  2 beta functions with:
                l(1) =   0
                l(2) =   0
     Q(r) pseudized with 0 coefficients

     atomic species   valence    mass     pseudopotential
        Ta            27.00   180.94788     Ta( 1.00)
        C              4.00    12.01070     C ( 1.00)
        H              1.00     1.00000     H ( 1.00)

     No symmetry found

   Cartesian axes

     site n.     atom                  positions (alat units)
         1           Ta  tau(   1) = (  -0.0318903   0.6043570   0.5998417  )
         2           C   tau(   2) = (  -0.0318451   0.0046950   1.0123183  )
         3           Ta  tau(   3) = (   0.4873834   0.3045793   1.4551225  )
         4           C   tau(   4) = (  -0.0315990   0.6046742   1.9088526  )
         5           Ta  tau(   5) = (  -0.0314813   0.0050388   2.3418107  )
         6           H   tau(   6) = (   0.4875612   0.3049076   2.6744449  )

     number of k points=   113  Marzari-Vanderbilt smearing, width (Ry)=  0.0010

     Number of k-points >= 100: set verbosity='high' to print them.

     Check: negative core charge=   -0.000002

     Initial potential from superposition of free atoms

     starting charge   89.99759, renormalised to   90.00000

     negative rho (up, down):  8.248E-04 0.000E+00
     Starting wfcs are   60 randomized atomic wfcs

     Self-consistent Calculation

[...]

     iteration # 25     ecut=    60.00 Ry     beta= 0.70
     Davidson diagonalization with overlap
     c_bands:  1 eigenvalues not converged
     ethr =  1.00E-13,  avg # of iterations =  1.2

[...]

     total energy              =   -2067.43260866 Ry
     estimated scf accuracy    <          4.9E-14 Ry

     iteration # 30     ecut=    60.00 Ry     beta= 0.70
     Davidson diagonalization with overlap
     ethr =  1.00E-13,  avg # of iterations =  1.0

[...]

     End of self-consistent calculation

     Number of k-points >= 100: set verbosity='high' to print the bands.

     the Fermi energy is     2.5976 ev

!    total energy              =   -2067.43260866 Ry
     estimated scf accuracy    <          1.3E-15 Ry
     smearing contrib. (-TS)   =      -0.00000470 Ry
     internal energy E=F+TS    =   -2067.43260397 Ry

     The total energy is F=E-TS. E is the sum of the following terms:
     one-electron contribution =  -19968.66203801 Ry
     hartree contribution      =   10036.17908139 Ry
     xc contribution           =    -211.37443475 Ry
     ewald contribution        =    8076.42478740 Ry

     convergence has been achieved in  30 iterations

     negative rho (up, down):  8.345E-04 0.000E+00

     Forces acting on atoms (cartesian axes, Ry/au):

     atom    1 type  1   force =     0.00002099   -0.00002052    0.00021199
     atom    2 type  2   force =     0.00009557    0.00020582    0.00004119
     atom    3 type  1   force =     0.00007648    0.00005857   -0.00002040
     atom    4 type  2   force =    -0.00011983   -0.00022166   -0.00006486
     atom    5 type  1   force =    -0.00014487   -0.00001612    0.00006040
     atom    6 type  3   force =     0.00007166   -0.00000609   -0.00022832

     Total force =     0.000509     Total SCF correction =     0.000000

     Computing stress (Cartesian axis) and pressure

     negative rho (up, down):  8.345E-04 0.000E+00
          total   stress  (Ry/bohr**3)                   (kbar)     P=       -2.61
  -0.00000578   0.00000053  -0.00000051           -0.85        0.08       -0.07
   0.00000053  -0.00000809  -0.00000042            0.08       -1.19       -0.06
  -0.00000051  -0.00000042  -0.00003940           -0.07       -0.06       -5.80

     Writing output data file /scratch/as3359/Ta3C2H_loop/Ta.save/

     General routines

     Parallel routines

   This run was terminated on:   3:29:37  15Apr2022

   JOB DONE.