     Program PWSCF v.6.8 starts on  8Apr2022 at 18:46:36

     R & G space division:  proc/nbgrp/npool/nimage =       2

     Reading input from Ta4C3.scf.vcrelax1.in

     Current dimensions of program PWSCF are:
     Max number of different atomic species (ntypx) = 10
     Max number of k-points (npk) =  40000
     Max angular momentum in pseudopotentials (lmaxx) =  4
     file Ta.pbesol-spfn-rrkjus_psl.1.0.0.UPF: wavefunction(s)  5S 5P renormalized

     Subspace diagonalization in iterative solution of the eigenvalue problem:
     a serial algorithm will be used

     Using Slab Decomposition

     bravais-lattice index     =            0
     lattice parameter (alat)  =       5.5500  a.u.
     unit-cell volume          =     979.9751 (a.u.)^3
     number of atoms/cell      =            7
     number of atomic types    =            2
     number of electrons       =       120.00
     number of Kohn-Sham states=           72
     kinetic-energy cutoff     =      60.0000  Ry
     charge density cutoff     =     300.0000  Ry
     scf convergence threshold =      1.0E-12
     mixing beta               =       0.7000
     number of iterations used =            8  plain     mixing
     energy convergence thresh.=      1.0E-04
     force convergence thresh. =      1.0E-03
     press convergence thresh. =      5.0E-01
     Exchange-correlation= PBESOL
                           (   1   4  10   8   0   0   0)
     nstep                     =           50

     celldm(1)=   5.550000  celldm(2)=   0.000000  celldm(3)=   0.000000
     celldm(4)=   0.000000  celldm(5)=   0.000000  celldm(6)=   0.000000

     crystal axes: (cart. coord. in units of alat)
               a(1) = (   1.050333  -0.000000   0.000000 )
               a(2) = (  -0.525167   0.909616   0.000000 )
               a(3) = (   0.000000   0.000000   6.000000 )

     reciprocal axes: (cart. coord. in units 2 pi/alat)
               b(1) = (  0.952079  0.549683  0.000000 )
               b(2) = (  0.000000  1.099366  0.000000 )
               b(3) = (  0.000000  0.000000  0.166667 )

     PseudoPot. # 1 for Ta read from file:
     /shared/home/as3359/pseudo/Ta.pbesol-spfn-rrkjus_psl.1.0.0.UPF
     MD5 check sum: f099565ffaca9b150a52e9412a28e20b
     Pseudo is Ultrasoft + core correction, Zval = 27.0
     Generated using &quot;atomic&quot; code by A. Dal Corso  v.6.3
     Using radial grid of 1273 points,  8 beta functions with:
                l(1) =   0
                l(2) =   0
                l(3) =   1
                l(4) =   1
                l(5) =   2
                l(6) =   2
                l(7) =   3
                l(8) =   3
     Q(r) pseudized with 0 coefficients

     PseudoPot. # 2 for C  read from file:
     /shared/home/as3359/pseudo/C.pbesol-n-rrkjus_psl.1.0.0.UPF
     MD5 check sum: 05995be603a8a7c99da3dc4413f31573
     Pseudo is Ultrasoft + core correction, Zval =  4.0
     Generated using &quot;atomic&quot; code by A. Dal Corso  v.6.3MaX
     Using radial grid of 1073 points,  4 beta functions with:
                l(1) =   0
                l(2) =   0
                l(3) =   1
                l(4) =   1
     Q(r) pseudized with 0 coefficients

     atomic species   valence    mass     pseudopotential
        Ta            27.00   180.94788     Ta( 1.00)
        C              4.00    12.01070     C ( 1.00)

     No symmetry found

   Cartesian axes

     site n.     atom                  positions (alat units)
         1           Ta  tau(   1) = (   0.0000409   0.6070318  -0.1703336  )
         2           C   tau(   2) = (   0.0002511   0.0005928   0.2265444  )
         3           Ta  tau(   3) = (   0.5255277   0.3037199   0.6690180  )
         4           C   tau(   4) = (   0.0002771   0.6069603   1.1221243  )
         5           Ta  tau(   5) = (   0.0002681   0.0004611   1.5751489  )
         6           C   tau(   6) = (   0.5254190   0.3037992   2.0175711  )
         7           Ta  tau(   7) = (   0.0003354   0.6072027   2.4144937  )

     number of k points=    74  Marzari-Vanderbilt smearing, width (Ry)=  0.0010
                       cart. coord. in units 2pi/alat
        k(    1) = (   0.0000000   0.0000000   0.0000000), wk =   0.0138889
        k(    2) = (   0.0000000   0.0916138   0.0000000), wk =   0.0277778
        k(    3) = (   0.0000000   0.1832276   0.0000000), wk =   0.0277778
        k(    4) = (   0.0000000   0.2748414   0.0000000), wk =   0.0277778
        k(    5) = (   0.0000001   0.3664552   0.0000000), wk =   0.0277778
        k(    6) = (   0.0000001   0.4580690   0.0000000), wk =   0.0277778
        k(    7) = (  -0.0000001  -0.5496828   0.0000000), wk =   0.0138889
        k(    8) = (   0.0793399   0.1374207   0.0000000), wk =   0.0277778
        k(    9) = (   0.0793400   0.2290345   0.0000000), wk =   0.0277778
        k(   10) = (   0.0793400   0.3206483   0.0000000), wk =   0.0277778
        k(   11) = (   0.0793400   0.4122621   0.0000000), wk =   0.0277778
        k(   12) = (   0.0793400   0.5038759   0.0000000), wk =   0.0277778
        k(   13) = (   0.1586799   0.2748414   0.0000000), wk =   0.0277778
        k(   14) = (   0.1586799   0.3664552   0.0000000), wk =   0.0277778
        k(   15) = (   0.1586799   0.4580690   0.0000000), wk =   0.0277778
        k(   16) = (   0.1586799   0.5496828   0.0000000), wk =   0.0277778
        k(   17) = (   0.2380198   0.4122621   0.0000000), wk =   0.0277778
        k(   18) = (   0.2380199   0.5038759   0.0000000), wk =   0.0277778
        k(   19) = (   0.3173598   0.5496828   0.0000000), wk =   0.0277778
        k(   20) = (  -0.0793399   0.0458069   0.0000000), wk =   0.0277778
        k(   21) = (   0.0793399   0.0458069   0.0000000), wk =   0.0277778
        k(   22) = (  -0.1586798   0.0916138   0.0000000), wk =   0.0277778
        k(   23) = (   0.1586799   0.0916138   0.0000000), wk =   0.0277778
        k(   24) = (  -0.2380198   0.1374206   0.0000000), wk =   0.0277778
        k(   25) = (   0.2380198   0.1374207   0.0000000), wk =   0.0277778
        k(   26) = (  -0.3173597   0.1832275   0.0000000), wk =   0.0277778
        k(   27) = (   0.3173597   0.1832276   0.0000000), wk =   0.0277778
        k(   28) = (  -0.3966996   0.2290344   0.0000000), wk =   0.0277778
        k(   29) = (   0.3966997   0.2290345   0.0000000), wk =   0.0277778
        k(   30) = (   0.4760395  -0.2748413   0.0000000), wk =   0.0138889
        k(   31) = (  -0.4760396  -0.2748415   0.0000000), wk =   0.0138889
        k(   32) = (  -0.0793399   0.1374207   0.0000000), wk =   0.0277778
        k(   33) = (   0.1586799   0.0000000   0.0000000), wk =   0.0277778
        k(   34) = (  -0.0793399   0.2290345   0.0000000), wk =   0.0277778
        k(   35) = (  -0.1586798   0.1832276   0.0000000), wk =   0.0277778
        k(   36) = (   0.2380198   0.0458069   0.0000000), wk =   0.0277778
        k(   37) = (  -0.1586799  -0.1832276   0.0000000), wk =   0.0277778
        k(   38) = (   0.2380198  -0.0458069   0.0000000), wk =   0.0277778
        k(   39) = (  -0.0793399   0.3206483   0.0000000), wk =   0.0277778
        k(   40) = (  -0.2380197   0.2290344   0.0000000), wk =   0.0277778
        k(   41) = (   0.3173597   0.0916138   0.0000000), wk =   0.0277778
        k(   42) = (  -0.2380198  -0.2290345   0.0000000), wk =   0.0277778
        k(   43) = (   0.3173597  -0.0916137   0.0000000), wk =   0.0277778
        k(   44) = (  -0.0793399   0.4122621   0.0000000), wk =   0.0277778
        k(   45) = (  -0.3173597   0.2748413   0.0000000), wk =   0.0277778
        k(   46) = (   0.3966997   0.1374208   0.0000000), wk =   0.0277778
        k(   47) = (  -0.3173597  -0.2748414   0.0000000), wk =   0.0277778
        k(   48) = (   0.3966996  -0.1374206   0.0000000), wk =   0.0277778
        k(   49) = (  -0.0793398   0.5038758   0.0000000), wk =   0.0277778
        k(   50) = (  -0.3966996   0.3206482   0.0000000), wk =   0.0277778
        k(   51) = (   0.4760396   0.1832277   0.0000000), wk =   0.0277778
        k(   52) = (  -0.3966997  -0.3206483   0.0000000), wk =   0.0277778
        k(   53) = (   0.4760395  -0.1832275   0.0000000), wk =   0.0277778
        k(   54) = (  -0.1586798   0.2748414   0.0000000), wk =   0.0277778
        k(   55) = (   0.3173597   0.0000001   0.0000000), wk =   0.0277778
        k(   56) = (  -0.1586798   0.3664551   0.0000000), wk =   0.0277778
        k(   57) = (  -0.2380197   0.3206482   0.0000000), wk =   0.0277778
        k(   58) = (   0.3966996   0.0458070   0.0000000), wk =   0.0277778
        k(   59) = (  -0.2380198  -0.3206483   0.0000000), wk =   0.0277778
        k(   60) = (   0.3966996  -0.0458068   0.0000000), wk =   0.0277778
        k(   61) = (  -0.1586798   0.4580689   0.0000000), wk =   0.0277778
        k(   62) = (  -0.3173596   0.3664551   0.0000000), wk =   0.0277778
        k(   63) = (   0.4760396   0.0916139   0.0000000), wk =   0.0277778
        k(   64) = (  -0.3173598  -0.3664552   0.0000000), wk =   0.0277778
        k(   65) = (   0.4760395  -0.0916137   0.0000000), wk =   0.0277778
        k(   66) = (  -0.3966996   0.4122620   0.0000000), wk =   0.0277778
        k(   67) = (   0.5553795   0.1374208   0.0000000), wk =   0.0277778
        k(   68) = (  -0.2380197   0.4122620   0.0000000), wk =   0.0277778
        k(   69) = (   0.4760396   0.0000001   0.0000000), wk =   0.0277778
        k(   70) = (  -0.2380197   0.5038758   0.0000000), wk =   0.0277778
        k(   71) = (  -0.3173596   0.4580689   0.0000000), wk =   0.0277778
        k(   72) = (   0.5553795   0.0458070   0.0000000), wk =   0.0277778
        k(   73) = (  -0.3173598  -0.4580690   0.0000000), wk =   0.0277778
        k(   74) = (   0.5553795  -0.0458068   0.0000000), wk =   0.0277778

     Check: negative core charge=   -0.000003

     Initial potential from superposition of free atoms

     starting charge  119.99679, renormalised to  120.00000

     negative rho (up, down):  3.615E-05 0.000E+00
     Starting wfcs are   80 randomized atomic wfcs

     Self-consistent Calculation

     iteration #  1     ecut=    60.00 Ry     beta= 0.70
     CG style diagonalization
     ethr =  1.00E-02,  avg # of iterations =  2.2

     negative rho (up, down):  1.320E-06 0.000E+00

     total energy              =   -2756.49888008 Ry
     estimated scf accuracy    <       3.78468257 Ry

     iteration #  2     ecut=    60.00 Ry     beta= 0.70
     CG style diagonalization
     c_bands:  1 eigenvalues not converged
     c_bands:  1 eigenvalues not converged
     c_bands:  1 eigenvalues not converged
     ethr =  3.15E-03,  avg # of iterations =  4.0

[...]

     iteration #  6     ecut=    60.00 Ry     beta= 0.70
     CG style diagonalization
     ethr =  1.21E-03,  avg # of iterations =  3.0
     Minimization algorithm failed to find Fermi energy: reverting to bisection
     Possible cause: smearing is larger than the electronic band-gap.

[...]

     iteration #  8     ecut=    60.00 Ry     beta= 0.70
     CG style diagonalization
     ethr =  8.39E-05,  avg # of iterations =  3.3
     Minimization algorithm failed to find Fermi energy: reverting to bisection
[...]
     Gradient error          =      7.3E-04 Ry/Bohr
     Cell gradient error     =      2.5E+00 kbar

     number of scf cycles    =   1
     number of bfgs steps    =   0

     enthalpy           new  =   -2759.1631412784 Ry

     new trust radius        =       0.0027062002 bohr
     new conv_thr            =            1.0E-12 Ry

     new unit-cell volume =    979.13732 a.u.^3 (   145.09318 Ang^3 )
     density =      8.69591 g/cm^3

CELL_PARAMETERS (alat=  5.55000000)
   1.049878974  -0.000008548   0.000000000
  -0.524946890   0.909235131   0.000000000
   0.000000000   0.000000000   6.000000000

ATOMIC_POSITIONS (alat)
Ta            0.0000811884        0.6067703508       -0.1704298922
C             0.0002266431        0.0005827601        0.2264132155
Ta            0.5252711028        0.3036062997        0.6689429881
C             0.0002790831        0.6066913663        1.1221201178
Ta            0.0002648422        0.0004937286        1.5752311854
C             0.5252104034        0.3036828478        2.0177017692
Ta            0.0003120701        0.6069044693        2.4145873163

     Writing output data file /scratch/as3359/Ta4C3_loop/Ta.save/
     NEW-OLD atomic charge density approx. for the potential

[...]

     negative rho (up, down):  3.006E-05 0.000E+00
     extrapolated charge  119.89732, renormalised to  120.00000

[...]

     Energy error            =      1.1E-05 Ry
     Gradient error          =      9.7E-04 Ry/Bohr
     Cell gradient error     =      5.5E-01 kbar

     number of scf cycles    =   2
     number of bfgs steps    =   1

     enthalpy           old  =   -2759.1631412784 Ry
     enthalpy           new  =   -2759.1631522108 Ry

     CASE: enthalpy          _new < enthalpy          _old

     new trust radius        =       0.0015721303 bohr
     new conv_thr            =            1.0E-14 Ry

     new unit-cell volume =    978.68638 a.u.^3 (   145.02636 Ang^3 )
     density =      8.69991 g/cm^3

[...]

ATOMIC_POSITIONS (alat)
Ta            0.0001295525        0.6066238583       -0.1707076076
C             0.0002058161        0.0005745677        0.2262305334
Ta            0.5251049610        0.3035521351        0.6688440408
C             0.0002756498        0.6065497801        1.1221171163
Ta            0.0002670375        0.0005367800        1.5753341964
C             0.5251005578        0.3036232987        2.0178850148
Ta            0.0002874501        0.6067157674        2.4148634059

     Writing output data file /scratch/as3359/Ta4C3_loop/Ta.save/
     NEW-OLD atomic charge density approx. for the potential

[...]

     negative rho (up, down):  3.016E-05 0.000E+00
     extrapolated charge  119.94471, renormalised to  120.00000

[...]

     Energy error            =      4.7E-06 Ry
     Gradient error          =      8.8E-04 Ry/Bohr
     Cell gradient error     =      3.8E-01 kbar

     bfgs converged in   3 scf cycles and   2 bfgs steps
     (criteria: energy <  1.0E-04 Ry, force <  1.0E-03Ry/Bohr, cell <  5.0E-01kbar)

     End of BFGS Geometry Optimization

     Final enthalpy           =   -2759.1631569589 Ry

     File /scratch/as3359/Ta4C3_loop/Ta.bfgs deleted, as requested
Begin final coordinates
     new unit-cell volume =    978.68638 a.u.^3 (   145.02636 Ang^3 )
     density =      8.69991 g/cm^3

CELL_PARAMETERS (alat=  5.55000000)
   1.049630781  -0.000019654   0.000000000
  -0.524832411   0.909036839   0.000000000
   0.000000000   0.000000000   6.000000000

ATOMIC_POSITIONS (alat)
Ta            0.0001295525        0.6066238583       -0.1707076076
C             0.0002058161        0.0005745677        0.2262305334
Ta            0.5251049610        0.3035521351        0.6688440408
C             0.0002756498        0.6065497801        1.1221171163
Ta            0.0002670375        0.0005367800        1.5753341964
C             0.5251005578        0.3036232987        2.0178850148
Ta            0.0002874501        0.6067157674        2.4148634059
End final coordinates

     Writing output data file /scratch/as3359/Ta4C3_loop/Ta.save/

     Final scf calculation at the relaxed structure.
     The G-vectors are recalculated for the final unit cell
     Results may differ from those at the preceding step.

     Using Slab Decomposition

     bravais-lattice index     =            0
     lattice parameter (alat)  =       5.5500  a.u.
     unit-cell volume          =     978.6864 (a.u.)^3
     number of atoms/cell      =            7
     number of atomic types    =            2
     number of electrons       =       120.00
     number of Kohn-Sham states=           72
     kinetic-energy cutoff     =      60.0000  Ry
     charge density cutoff     =     300.0000  Ry
     scf convergence threshold =      1.0E-14
     mixing beta               =       0.7000
     number of iterations used =            8  plain     mixing
     press convergence thresh. =      5.0E-01
     Exchange-correlation= PBESOL
                           (   1   4  10   8   0   0   0)

     celldm(1)=   5.550000  celldm(2)=   0.000000  celldm(3)=   0.000000
     celldm(4)=   0.000000  celldm(5)=   0.000000  celldm(6)=   0.000000

     crystal axes: (cart. coord. in units of alat)
               a(1) = (   1.049631  -0.000020   0.000000 )
               a(2) = (  -0.524832   0.909037   0.000000 )
               a(3) = (   0.000000   0.000000   6.000000 )

     reciprocal axes: (cart. coord. in units 2 pi/alat)
               b(1) = (  0.952726  0.550056  0.000000 )
               b(2) = (  0.000021  1.100077  0.000000 )
               b(3) = (  0.000000  0.000000  0.166667 )

     PseudoPot. # 1 for Ta read from file:
     /shared/home/as3359/pseudo/Ta.pbesol-spfn-rrkjus_psl.1.0.0.UPF
     MD5 check sum: f099565ffaca9b150a52e9412a28e20b
     Pseudo is Ultrasoft + core correction, Zval = 27.0
     Generated using &quot;atomic&quot; code by A. Dal Corso  v.6.3
     Using radial grid of 1273 points,  8 beta functions with:
                l(1) =   0
                l(2) =   0
                l(3) =   1
                l(4) =   1
                l(5) =   2
                l(6) =   2
                l(7) =   3
                l(8) =   3
     Q(r) pseudized with 0 coefficients

     PseudoPot. # 2 for C  read from file:
     /shared/home/as3359/pseudo/C.pbesol-n-rrkjus_psl.1.0.0.UPF
     MD5 check sum: 05995be603a8a7c99da3dc4413f31573
     Pseudo is Ultrasoft + core correction, Zval =  4.0
     Generated using &quot;atomic&quot; code by A. Dal Corso  v.6.3MaX
     Using radial grid of 1073 points,  4 beta functions with:
                l(1) =   0
                l(2) =   0
                l(3) =   1
                l(4) =   1
     Q(r) pseudized with 0 coefficients

     atomic species   valence    mass     pseudopotential
        Ta            27.00   180.94788     Ta( 1.00)
        C              4.00    12.01070     C ( 1.00)

     No symmetry found

   Cartesian axes

     site n.     atom                  positions (alat units)
         1           Ta  tau(   1) = (   0.0001296   0.6066239  -0.1707076  )
         2           C   tau(   2) = (   0.0002058   0.0005746   0.2262305  )
         3           Ta  tau(   3) = (   0.5251050   0.3035521   0.6688440  )
         4           C   tau(   4) = (   0.0002756   0.6065498   1.1221171  )
         5           Ta  tau(   5) = (   0.0002670   0.0005368   1.5753342  )
         6           C   tau(   6) = (   0.5251006   0.3036233   2.0178850  )
         7           Ta  tau(   7) = (   0.0002875   0.6067158   2.4148634  )

     number of k points=    74  Marzari-Vanderbilt smearing, width (Ry)=  0.0010
                       cart. coord. in units 2pi/alat
        k(    1) = (   0.0000000   0.0000000   0.0000000), wk =   0.0138889
        k(    2) = (   0.0000017   0.0916731   0.0000000), wk =   0.0277778
        k(    3) = (   0.0000034   0.1833462   0.0000000), wk =   0.0277778
        k(    4) = (   0.0000051   0.2750193   0.0000000), wk =   0.0277778
        k(    5) = (   0.0000069   0.3666924   0.0000000), wk =   0.0277778
        k(    6) = (   0.0000086   0.4583656   0.0000000), wk =   0.0277778
        k(    7) = (  -0.0000103  -0.5500387   0.0000000), wk =   0.0138889
        k(    8) = (   0.0793956   0.1375112   0.0000000), wk =   0.0277778
        k(    9) = (   0.0793973   0.2291843   0.0000000), wk =   0.0277778
        k(   10) = (   0.0793990   0.3208574   0.0000000), wk =   0.0277778
        k(   11) = (   0.0794007   0.4125305   0.0000000), wk =   0.0277778
        k(   12) = (   0.0794024   0.5042036   0.0000000), wk =   0.0277778
        k(   13) = (   0.1587911   0.2750223   0.0000000), wk =   0.0277778
        k(   14) = (   0.1587929   0.3666954   0.0000000), wk =   0.0277778
        k(   15) = (   0.1587946   0.4583685   0.0000000), wk =   0.0277778
        k(   16) = (   0.1587963   0.5500416   0.0000000), wk =   0.0277778
        k(   17) = (   0.2381867   0.4125335   0.0000000), wk =   0.0277778
        k(   18) = (   0.2381884   0.5042066   0.0000000), wk =   0.0277778
        k(   19) = (   0.3175823   0.5500446   0.0000000), wk =   0.0277778
        k(   20) = (  -0.0793921   0.0458351   0.0000000), wk =   0.0277778
        k(   21) = (   0.0793939   0.0458380   0.0000000), wk =   0.0277778
        k(   22) = (  -0.1587843   0.0916701   0.0000000), wk =   0.0277778
        k(   23) = (   0.1587877   0.0916761   0.0000000), wk =   0.0277778
        k(   24) = (  -0.2381764   0.1375052   0.0000000), wk =   0.0277778
        k(   25) = (   0.2381816   0.1375141   0.0000000), wk =   0.0277778
        k(   26) = (  -0.3175686   0.1833403   0.0000000), wk =   0.0277778
        k(   27) = (   0.3175754   0.1833522   0.0000000), wk =   0.0277778
        k(   28) = (  -0.3969607   0.2291753   0.0000000), wk =   0.0277778
        k(   29) = (   0.3969693   0.2291902   0.0000000), wk =   0.0277778
        k(   30) = (   0.4763528  -0.2750104   0.0000000), wk =   0.0138889
        k(   31) = (  -0.4763631  -0.2750282   0.0000000), wk =   0.0138889
        k(   32) = (  -0.0793904   0.1375082   0.0000000), wk =   0.0277778
        k(   33) = (   0.1587860   0.0000030   0.0000000), wk =   0.0277778
        k(   34) = (  -0.0793887   0.2291813   0.0000000), wk =   0.0277778
        k(   35) = (  -0.1587826   0.1833432   0.0000000), wk =   0.0277778
        k(   36) = (   0.2381798   0.0458410   0.0000000), wk =   0.0277778
        k(   37) = (  -0.1587894  -0.1833492   0.0000000), wk =   0.0277778
        k(   38) = (   0.2381781  -0.0458321   0.0000000), wk =   0.0277778
        k(   39) = (  -0.0793870   0.3208544   0.0000000), wk =   0.0277778
        k(   40) = (  -0.2381747   0.2291783   0.0000000), wk =   0.0277778
        k(   41) = (   0.3175737   0.0916791   0.0000000), wk =   0.0277778
        k(   42) = (  -0.2381833  -0.2291872   0.0000000), wk =   0.0277778
        k(   43) = (   0.3175703  -0.0916672   0.0000000), wk =   0.0277778
        k(   44) = (  -0.0793853   0.4125275   0.0000000), wk =   0.0277778
        k(   45) = (  -0.3175668   0.2750134   0.0000000), wk =   0.0277778
        k(   46) = (   0.3969676   0.1375171   0.0000000), wk =   0.0277778
        k(   47) = (  -0.3175771  -0.2750253   0.0000000), wk =   0.0277778
        k(   48) = (   0.3969624  -0.1375022   0.0000000), wk =   0.0277778
        k(   49) = (  -0.0793836   0.5042006   0.0000000), wk =   0.0277778
        k(   50) = (  -0.3969590   0.3208485   0.0000000), wk =   0.0277778
        k(   51) = (   0.4763614   0.1833551   0.0000000), wk =   0.0277778
        k(   52) = (  -0.3969710  -0.3208633   0.0000000), wk =   0.0277778
        k(   53) = (   0.4763545  -0.1833373   0.0000000), wk =   0.0277778
        k(   54) = (  -0.1587808   0.2750164   0.0000000), wk =   0.0277778
        k(   55) = (   0.3175720   0.0000059   0.0000000), wk =   0.0277778
        k(   56) = (  -0.1587791   0.3666895   0.0000000), wk =   0.0277778
        k(   57) = (  -0.2381730   0.3208514   0.0000000), wk =   0.0277778
        k(   58) = (   0.3969658   0.0458440   0.0000000), wk =   0.0277778
        k(   59) = (  -0.2381850  -0.3208603   0.0000000), wk =   0.0277778
        k(   60) = (   0.3969641  -0.0458291   0.0000000), wk =   0.0277778
        k(   61) = (  -0.1587774   0.4583626   0.0000000), wk =   0.0277778
        k(   62) = (  -0.3175651   0.3666865   0.0000000), wk =   0.0277778
        k(   63) = (   0.4763597   0.0916820   0.0000000), wk =   0.0277778
        k(   64) = (  -0.3175789  -0.3666984   0.0000000), wk =   0.0277778
        k(   65) = (   0.4763563  -0.0916642   0.0000000), wk =   0.0277778
        k(   66) = (  -0.3969573   0.4125216   0.0000000), wk =   0.0277778
        k(   67) = (   0.5557536   0.1375201   0.0000000), wk =   0.0277778
        k(   68) = (  -0.2381713   0.4125245   0.0000000), wk =   0.0277778
        k(   69) = (   0.4763580   0.0000089   0.0000000), wk =   0.0277778
        k(   70) = (  -0.2381695   0.5041976   0.0000000), wk =   0.0277778
        k(   71) = (  -0.3175634   0.4583596   0.0000000), wk =   0.0277778
        k(   72) = (   0.5557518   0.0458470   0.0000000), wk =   0.0277778
        k(   73) = (  -0.3175806  -0.4583715   0.0000000), wk =   0.0277778
        k(   74) = (   0.5557501  -0.0458261   0.0000000), wk =   0.0277778

     Check: negative core charge=   -0.000003

     Initial potential from superposition of free atoms

     starting charge  119.99679, renormalised to  120.00000

     negative rho (up, down):  4.219E-05 0.000E+00
     Starting wfcs are   80 randomized atomic wfcs

     Self-consistent Calculation

[...]

     iteration # 14     ecut=    60.00 Ry     beta= 0.70
     CG style diagonalization
     c_bands:  1 eigenvalues not converged
     ethr =  6.23E-07,  avg # of iterations =  3.1

[...]

     total energy              =   -2759.16305292 Ry
     estimated scf accuracy    <          2.1E-14 Ry

     iteration # 39     ecut=    60.00 Ry     beta= 0.70
     CG style diagonalization
     ethr =  1.00E-13,  avg # of iterations =  3.0

[...]

     End of self-consistent calculation

[...]

          k =-0.3176-0.4584 0.0000 (  7705 PWs)   bands (ev):

[...]

          k = 0.5558-0.0458 0.0000 (  7705 PWs)   bands (ev):

   -57.4189 -57.4156 -56.9125 -56.9124 -24.3303 -24.2898 -24.1425 -24.0867
   -24.0225 -23.9687 -23.5956 -23.5878 -23.5371 -23.5336 -23.4200 -23.4132
    -9.1315  -9.1270  -9.1251  -9.1206  -9.1189  -9.1166  -9.1139  -9.1124
    -9.1092  -9.1055  -9.1031  -9.1021  -9.1004  -9.0990  -8.6760  -8.6759
    -8.6718  -8.6717  -8.6661  -8.6660  -8.6353  -8.6352  -8.6241  -8.6239
    -8.6039  -8.6038  -8.5806  -8.5805  -0.6294  -0.4400  -0.0078   3.9337
     4.5970   5.3481   5.5406   6.1366   6.2220   6.3234   6.5679   6.8251
     9.8545  10.1430  10.6747  10.7910  12.2893  13.0181  13.2549  13.4611
    13.9240  14.0948  14.4289  14.7799  15.2136  15.4118  16.8676  17.1728

     the Fermi energy is    11.1233 ev

!    total energy              =   -2759.16305292 Ry
     estimated scf accuracy    <          1.9E-15 Ry
     smearing contrib. (-TS)   =      -0.00001570 Ry
     internal energy E=F+TS    =   -2759.16303722 Ry

     The total energy is F=E-TS. E is the sum of the following terms:
     one-electron contribution =   -8682.78678701 Ry
     hartree contribution      =    4447.71200926 Ry
     xc contribution           =    -282.42324841 Ry
     ewald contribution        =    1758.33498894 Ry

     convergence has been achieved in  39 iterations

     negative rho (up, down):  3.635E-05 0.000E+00

     Forces acting on atoms (cartesian axes, Ry/au):

     atom    1 type  1   force =     0.00007696   -0.00003622   -0.00088706
     atom    2 type  2   force =     0.00001211    0.00000153   -0.00057502
     atom    3 type  1   force =    -0.00007584    0.00001432   -0.00033517
     atom    4 type  2   force =    -0.00002488    0.00004205    0.00000186
     atom    5 type  1   force =     0.00002539    0.00007266    0.00032758
     atom    6 type  2   force =    -0.00000734   -0.00000970    0.00058269
     atom    7 type  1   force =    -0.00000640   -0.00008462    0.00088513

     Total force =     0.001578     Total SCF correction =     0.000000

     Computing stress (Cartesian axis) and pressure

     negative rho (up, down):  3.635E-05 0.000E+00
          total   stress  (Ry/bohr**3)                   (kbar)     P=       -2.91
   0.00000179  -0.00000011  -0.00000045            0.26       -0.02       -0.07
  -0.00000011   0.00000192  -0.00000026           -0.02        0.28       -0.04
  -0.00000045  -0.00000026  -0.00006297           -0.07       -0.04       -9.26

     Writing output data file /scratch/as3359/Ta4C3_loop/Ta.save/

     General routines

     Parallel routines

   This run was terminated on:  19:57:57   8Apr2022

   JOB DONE.