     Program PWSCF v.6.8 starts on  8Apr2022 at 18: 4:15

     R & G space division:  proc/nbgrp/npool/nimage =       2

     Reading input from Ta4C3.relax.in
Warning: card  &CELL ignored
Warning: card     CELL_DYNAMICS='BFGS', CELL_DOFREE ='2DXY' ignored
Warning: card  / ignored

     Current dimensions of program PWSCF are:
     Max number of different atomic species (ntypx) = 10
     Max number of k-points (npk) =  40000
     Max angular momentum in pseudopotentials (lmaxx) =  4

     File /scratch/as3359/Ta4C3_loop/Ta.update deleted, as requested

     File /scratch/as3359/Ta4C3_loop/Ta.bfgs deleted, as requested
     file Ta.pbesol-spfn-rrkjus_psl.1.0.0.UPF: wavefunction(s)  5S 5P renormalized

     Subspace diagonalization in iterative solution of the eigenvalue problem:
     a serial algorithm will be used

     Using Slab Decomposition

     bravais-lattice index     =            0
     lattice parameter (alat)  =       5.5500  a.u.
     unit-cell volume          =     979.9751 (a.u.)^3
     number of atoms/cell      =            7
     number of atomic types    =            2
     number of electrons       =       120.00
     number of Kohn-Sham states=           72
     kinetic-energy cutoff     =      60.0000  Ry
     charge density cutoff     =     300.0000  Ry
     scf convergence threshold =      1.0E-12
     mixing beta               =       0.7000
     number of iterations used =            8  plain     mixing
     energy convergence thresh.=      1.0E-04
     force convergence thresh. =      1.0E-03
     Exchange-correlation= PBESOL
                           (   1   4  10   8   0   0   0)
     nstep                     =           50

     celldm(1)=   5.550000  celldm(2)=   0.000000  celldm(3)=   0.000000
     celldm(4)=   0.000000  celldm(5)=   0.000000  celldm(6)=   0.000000

     crystal axes: (cart. coord. in units of alat)
               a(1) = (   1.050333  -0.000000   0.000000 )
               a(2) = (  -0.525167   0.909616   0.000000 )
               a(3) = (   0.000000   0.000000   6.000000 )

     reciprocal axes: (cart. coord. in units 2 pi/alat)
               b(1) = (  0.952079  0.549683  0.000000 )
               b(2) = (  0.000000  1.099366  0.000000 )
               b(3) = (  0.000000  0.000000  0.166667 )

     PseudoPot. # 1 for Ta read from file:
     /shared/home/as3359/pseudo/Ta.pbesol-spfn-rrkjus_psl.1.0.0.UPF
     MD5 check sum: f099565ffaca9b150a52e9412a28e20b
     Pseudo is Ultrasoft + core correction, Zval = 27.0
     Generated using &quot;atomic&quot; code by A. Dal Corso  v.6.3
     Using radial grid of 1273 points,  8 beta functions with:
                l(1) =   0
                l(2) =   0
                l(3) =   1
                l(4) =   1
                l(5) =   2
                l(6) =   2
                l(7) =   3
                l(8) =   3
     Q(r) pseudized with 0 coefficients

     PseudoPot. # 2 for C  read from file:
     /shared/home/as3359/pseudo/C.pbesol-n-rrkjus_psl.1.0.0.UPF
     MD5 check sum: 05995be603a8a7c99da3dc4413f31573
     Pseudo is Ultrasoft + core correction, Zval =  4.0
     Generated using &quot;atomic&quot; code by A. Dal Corso  v.6.3MaX
     Using radial grid of 1073 points,  4 beta functions with:
                l(1) =   0
                l(2) =   0
                l(3) =   1
                l(4) =   1
     Q(r) pseudized with 0 coefficients

     atomic species   valence    mass     pseudopotential
        Ta            27.00   180.94788     Ta( 1.00)
        C              4.00    12.01070     C ( 1.00)

     No symmetry found

   Cartesian axes

     site n.     atom                  positions (alat units)
         1           Ta  tau(   1) = (  -0.0000003   0.6074414  -0.1694839  )
         2           C   tau(   2) = (  -0.0000001  -0.0000004   0.2265492  )
         3           Ta  tau(   3) = (   0.5260598   0.3037210   0.6692330  )
         4           C   tau(   4) = (   0.0000000   0.6074422   1.1220733  )
         5           Ta  tau(   5) = (   0.0000001   0.0000002   1.5750179  )
         6           C   tau(   6) = (   0.5260599   0.3037212   2.0174996  )
         7           Ta  tau(   7) = (   0.0000000   0.6074423   2.4136776  )

     number of k points=    74  Marzari-Vanderbilt smearing, width (Ry)=  0.0010
                       cart. coord. in units 2pi/alat
        k(    1) = (   0.0000000   0.0000000   0.0000000), wk =   0.0138889
        k(    2) = (   0.0000000   0.0916138   0.0000000), wk =   0.0277778
        k(    3) = (   0.0000000   0.1832276   0.0000000), wk =   0.0277778
        k(    4) = (   0.0000000   0.2748414   0.0000000), wk =   0.0277778
        k(    5) = (   0.0000001   0.3664552   0.0000000), wk =   0.0277778
        k(    6) = (   0.0000001   0.4580690   0.0000000), wk =   0.0277778
        k(    7) = (  -0.0000001  -0.5496828   0.0000000), wk =   0.0138889
        k(    8) = (   0.0793399   0.1374207   0.0000000), wk =   0.0277778
        k(    9) = (   0.0793400   0.2290345   0.0000000), wk =   0.0277778
        k(   10) = (   0.0793400   0.3206483   0.0000000), wk =   0.0277778
        k(   11) = (   0.0793400   0.4122621   0.0000000), wk =   0.0277778
        k(   12) = (   0.0793400   0.5038759   0.0000000), wk =   0.0277778
        k(   13) = (   0.1586799   0.2748414   0.0000000), wk =   0.0277778
        k(   14) = (   0.1586799   0.3664552   0.0000000), wk =   0.0277778
        k(   15) = (   0.1586799   0.4580690   0.0000000), wk =   0.0277778
        k(   16) = (   0.1586799   0.5496828   0.0000000), wk =   0.0277778
        k(   17) = (   0.2380198   0.4122621   0.0000000), wk =   0.0277778
        k(   18) = (   0.2380199   0.5038759   0.0000000), wk =   0.0277778
        k(   19) = (   0.3173598   0.5496828   0.0000000), wk =   0.0277778
        k(   20) = (  -0.0793399   0.0458069   0.0000000), wk =   0.0277778
        k(   21) = (   0.0793399   0.0458069   0.0000000), wk =   0.0277778
        k(   22) = (  -0.1586798   0.0916138   0.0000000), wk =   0.0277778
        k(   23) = (   0.1586799   0.0916138   0.0000000), wk =   0.0277778
        k(   24) = (  -0.2380198   0.1374206   0.0000000), wk =   0.0277778
        k(   25) = (   0.2380198   0.1374207   0.0000000), wk =   0.0277778
        k(   26) = (  -0.3173597   0.1832275   0.0000000), wk =   0.0277778
        k(   27) = (   0.3173597   0.1832276   0.0000000), wk =   0.0277778
        k(   28) = (  -0.3966996   0.2290344   0.0000000), wk =   0.0277778
        k(   29) = (   0.3966997   0.2290345   0.0000000), wk =   0.0277778
        k(   30) = (   0.4760395  -0.2748413   0.0000000), wk =   0.0138889
        k(   31) = (  -0.4760396  -0.2748415   0.0000000), wk =   0.0138889
        k(   32) = (  -0.0793399   0.1374207   0.0000000), wk =   0.0277778
        k(   33) = (   0.1586799   0.0000000   0.0000000), wk =   0.0277778
        k(   34) = (  -0.0793399   0.2290345   0.0000000), wk =   0.0277778
        k(   35) = (  -0.1586798   0.1832276   0.0000000), wk =   0.0277778
        k(   36) = (   0.2380198   0.0458069   0.0000000), wk =   0.0277778
        k(   37) = (  -0.1586799  -0.1832276   0.0000000), wk =   0.0277778
        k(   38) = (   0.2380198  -0.0458069   0.0000000), wk =   0.0277778
        k(   39) = (  -0.0793399   0.3206483   0.0000000), wk =   0.0277778
        k(   40) = (  -0.2380197   0.2290344   0.0000000), wk =   0.0277778
        k(   41) = (   0.3173597   0.0916138   0.0000000), wk =   0.0277778
        k(   42) = (  -0.2380198  -0.2290345   0.0000000), wk =   0.0277778
        k(   43) = (   0.3173597  -0.0916137   0.0000000), wk =   0.0277778
        k(   44) = (  -0.0793399   0.4122621   0.0000000), wk =   0.0277778
        k(   45) = (  -0.3173597   0.2748413   0.0000000), wk =   0.0277778
        k(   46) = (   0.3966997   0.1374208   0.0000000), wk =   0.0277778
        k(   47) = (  -0.3173597  -0.2748414   0.0000000), wk =   0.0277778
        k(   48) = (   0.3966996  -0.1374206   0.0000000), wk =   0.0277778
        k(   49) = (  -0.0793398   0.5038758   0.0000000), wk =   0.0277778
        k(   50) = (  -0.3966996   0.3206482   0.0000000), wk =   0.0277778
        k(   51) = (   0.4760396   0.1832277   0.0000000), wk =   0.0277778
        k(   52) = (  -0.3966997  -0.3206483   0.0000000), wk =   0.0277778
        k(   53) = (   0.4760395  -0.1832275   0.0000000), wk =   0.0277778
        k(   54) = (  -0.1586798   0.2748414   0.0000000), wk =   0.0277778
        k(   55) = (   0.3173597   0.0000001   0.0000000), wk =   0.0277778
        k(   56) = (  -0.1586798   0.3664551   0.0000000), wk =   0.0277778
        k(   57) = (  -0.2380197   0.3206482   0.0000000), wk =   0.0277778
        k(   58) = (   0.3966996   0.0458070   0.0000000), wk =   0.0277778
        k(   59) = (  -0.2380198  -0.3206483   0.0000000), wk =   0.0277778
        k(   60) = (   0.3966996  -0.0458068   0.0000000), wk =   0.0277778
        k(   61) = (  -0.1586798   0.4580689   0.0000000), wk =   0.0277778
        k(   62) = (  -0.3173596   0.3664551   0.0000000), wk =   0.0277778
        k(   63) = (   0.4760396   0.0916139   0.0000000), wk =   0.0277778
        k(   64) = (  -0.3173598  -0.3664552   0.0000000), wk =   0.0277778
        k(   65) = (   0.4760395  -0.0916137   0.0000000), wk =   0.0277778
        k(   66) = (  -0.3966996   0.4122620   0.0000000), wk =   0.0277778
        k(   67) = (   0.5553795   0.1374208   0.0000000), wk =   0.0277778
        k(   68) = (  -0.2380197   0.4122620   0.0000000), wk =   0.0277778
        k(   69) = (   0.4760396   0.0000001   0.0000000), wk =   0.0277778
        k(   70) = (  -0.2380197   0.5038758   0.0000000), wk =   0.0277778
        k(   71) = (  -0.3173596   0.4580689   0.0000000), wk =   0.0277778
        k(   72) = (   0.5553795   0.0458070   0.0000000), wk =   0.0277778
        k(   73) = (  -0.3173598  -0.4580690   0.0000000), wk =   0.0277778
        k(   74) = (   0.5553795  -0.0458068   0.0000000), wk =   0.0277778

     Check: negative core charge=   -0.000003

     Initial potential from superposition of free atoms

     starting charge  119.99679, renormalised to  120.00000

     negative rho (up, down):  3.653E-05 0.000E+00
     Starting wfcs are   80 randomized atomic wfcs

     Self-consistent Calculation

     iteration #  1     ecut=    60.00 Ry     beta= 0.70
     CG style diagonalization
     ethr =  1.00E-02,  avg # of iterations =  2.2

     negative rho (up, down):  1.321E-06 0.000E+00

     total energy              =   -2756.49572886 Ry
     estimated scf accuracy    <       3.78903453 Ry

     iteration #  2     ecut=    60.00 Ry     beta= 0.70
     CG style diagonalization
     c_bands:  1 eigenvalues not converged
     c_bands:  1 eigenvalues not converged
     ethr =  3.16E-03,  avg # of iterations =  4.0

[...]

     iteration #  6     ecut=    60.00 Ry     beta= 0.70
     CG style diagonalization
     ethr =  6.67E-04,  avg # of iterations =  3.1
     Minimization algorithm failed to find Fermi energy: reverting to bisection
     Possible cause: smearing is larger than the electronic band-gap.

[...]

     iteration # 13     ecut=    60.00 Ry     beta= 0.70
     CG style diagonalization
     c_bands:  1 eigenvalues not converged
     ethr =  2.28E-06,  avg # of iterations =  3.4

[...]

     End of self-consistent calculation

          k = 0.0000 0.0000 0.0000 (  7649 PWs)   bands (ev):

   -57.4893 -57.4704 -56.9762 -56.9756 -24.3915 -24.1296 -23.7509 -23.7501
   -23.7227 -23.7225 -23.6127 -23.5458 -23.1254 -23.1250 -23.1244 -23.1240
    -9.1666  -9.1610  -9.1463  -9.1458  -9.1457  -9.1362  -9.1360  -9.1341
    -9.1217  -9.1215  -9.1126  -9.1125  -9.0985  -9.0981  -8.7178  -8.7172
    -8.6761  -8.6759  -8.6754  -8.6752  -8.6576  -8.6576  -8.6570  -8.6570
    -8.6429  -8.6423  -8.5840  -8.5833  -3.2630  -2.1019  -0.3383   2.7936
     4.6714   6.0823   6.0828   6.8379   6.8396   7.4508   8.8281   8.8286
     9.4932  10.2883  10.2913  10.3346  10.3976  11.4645  11.4785  12.1351
    12.2645  12.2660  13.3188  13.3237  13.6877  14.0091  14.0158  14.5993

[...]

          k =-0.0000-0.5497 0.0000 (  7688 PWs)   bands (ev):

[...]

     the Fermi energy is    11.0995 ev

!    total energy              =   -2759.16311165 Ry
     estimated scf accuracy    <          4.8E-13 Ry
     smearing contrib. (-TS)   =      -0.00001429 Ry
     internal energy E=F+TS    =   -2759.16309736 Ry

     The total energy is F=E-TS. E is the sum of the following terms:
     one-electron contribution =   -8688.99220450 Ry
     hartree contribution      =    4450.73277316 Ry
     xc contribution           =    -282.41966063 Ry
     ewald contribution        =    1761.51599461 Ry

     convergence has been achieved in  38 iterations

[...]

     Forces acting on atoms (cartesian axes, Ry/au):

     atom    1 type  1   force =    -0.00005053   -0.00116059   -0.00221506
     atom    2 type  2   force =     0.00083406    0.00173555    0.00037825
     atom    3 type  1   force =    -0.00143242   -0.00008939   -0.00033963
     atom    4 type  2   force =     0.00074261   -0.00129117    0.00017062
     atom    5 type  1   force =     0.00079789    0.00119778    0.00005353
     atom    6 type  2   force =    -0.00192517    0.00014166   -0.00018407
     atom    7 type  1   force =     0.00103355   -0.00053385    0.00213637

     Total force =     0.005127     Total SCF correction =     0.000005

     Computing stress (Cartesian axis) and pressure

     negative rho (up, down):  2.962E-05 0.000E+00
          total   stress  (Ry/bohr**3)                   (kbar)     P=       -3.84
  -0.00001342  -0.00000161  -0.00000030           -1.97       -0.24       -0.04
  -0.00000161  -0.00001156  -0.00000018           -0.24       -1.70       -0.03
  -0.00000030  -0.00000018  -0.00005328           -0.04       -0.03       -7.84

     BFGS Geometry Optimization
     Energy error            =      0.0E+00 Ry
     Gradient error          =      2.2E-03 Ry/Bohr

     number of scf cycles    =   1
     number of bfgs steps    =   0

     energy             new  =   -2759.1631116536 Ry

     new trust radius        =       0.0025012011 bohr
     new conv_thr            =            1.0E-12 Ry

ATOMIC_POSITIONS (alat)
Ta           -0.0000094045        0.6072322842       -0.1698830094
C             0.0001501816        0.0003123122        0.2266173524
Ta            0.5258017063        0.3037048940        0.6691718046
C             0.0001338045        0.6072095570        1.1221040417
Ta            0.0001438641        0.0002160171        1.5750275445
C             0.5257130231        0.3037467241        2.0174664348
Ta            0.0001862250        0.6073461113        2.4140625314

     Writing output data file /scratch/as3359/Ta4C3_loop/Ta.save/
     NEW-OLD atomic charge density approx. for the potential

[...]

     Threshold (ethr) on eigenvalues was too large:
     Diagonalizing with lowered threshold

     CG style diagonalization
     ethr =  1.32E-08,  avg # of iterations =  3.9

[...]

     Energy error            =      2.0E-05 Ry
     Gradient error          =      1.3E-03 Ry/Bohr

     number of scf cycles    =   2
     number of bfgs steps    =   1

     energy             old  =   -2759.1631116536 Ry
     energy             new  =   -2759.1631315549 Ry

     CASE: energy            _new < energy            _old

     new trust radius        =       0.0027513212 bohr
     new conv_thr            =            1.0E-14 Ry

ATOMIC_POSITIONS (alat)
Ta            0.0000408956        0.6070318020       -0.1703335963
C             0.0002511341        0.0005928393        0.2265443638
Ta            0.5255276513        0.3037199489        0.6690179839
C             0.0002771084        0.6069602646        1.1221242715
Ta            0.0002681444        0.0004611417        1.5751488834
C             0.5254190326        0.3037991788        2.0175711117
Ta            0.0003354337        0.6072027247        2.4144936820

     Writing output data file /scratch/as3359/Ta4C3_loop/Ta.save/
     NEW-OLD atomic charge density approx. for the potential

     Check: negative core charge=   -0.000003

[...]

     Self-consistent Calculation

[...]

     Threshold (ethr) on eigenvalues was too large:
     Diagonalizing with lowered threshold

     CG style diagonalization
     ethr =  1.52E-08,  avg # of iterations =  3.8

[...]

     total energy              =   -2759.16314128 Ry
     estimated scf accuracy    <          2.7E-14 Ry

     iteration # 23     ecut=    60.00 Ry     beta= 0.70
     CG style diagonalization
     ethr =  1.00E-13,  avg # of iterations =  3.0

[...]

     End of self-consistent calculation

[...]

          k =-0.3174-0.4581 0.0000 (  7717 PWs)   bands (ev):

[...]

          k = 0.5554-0.0458 0.0000 (  7717 PWs)   bands (ev):

   -57.4390 -57.4357 -56.9354 -56.9353 -24.3477 -24.3072 -24.1612 -24.1052
   -24.0413 -23.9877 -23.6158 -23.6080 -23.5588 -23.5553 -23.4413 -23.4345
    -9.1518  -9.1472  -9.1453  -9.1410  -9.1393  -9.1369  -9.1342  -9.1328
    -9.1296  -9.1259  -9.1235  -9.1225  -9.1210  -9.1195  -8.6993  -8.6992
    -8.6949  -8.6947  -8.6892  -8.6891  -8.6586  -8.6585  -8.6474  -8.6472
    -8.6270  -8.6269  -8.6041  -8.6040  -0.6433  -0.4548  -0.0237   3.9209
     4.5837   5.3337   5.5266   6.1238   6.2084   6.3117   6.5551   6.8122
     9.8362  10.1252  10.6558  10.7729  12.2693  12.9952  13.2307  13.4375
    13.9035  14.0727  14.4088  14.7581  15.1920  15.3862  16.8370  17.1413

     the Fermi energy is    11.1022 ev

!    total energy              =   -2759.16314128 Ry
     estimated scf accuracy    <          9.0E-15 Ry
     smearing contrib. (-TS)   =      -0.00001538 Ry
     internal energy E=F+TS    =   -2759.16312590 Ry

     The total energy is F=E-TS. E is the sum of the following terms:
     one-electron contribution =   -8679.74226647 Ry
     hartree contribution      =    4446.09778321 Ry
     xc contribution           =    -282.41463529 Ry
     ewald contribution        =    1756.89599265 Ry

     convergence has been achieved in  23 iterations

     negative rho (up, down):  2.937E-05 0.000E+00

     Forces acting on atoms (cartesian axes, Ry/au):

     atom    1 type  1   force =     0.00025073   -0.00002607   -0.00053239
     atom    2 type  2   force =    -0.00013534   -0.00005462   -0.00072736
     atom    3 type  1   force =    -0.00015003    0.00010558   -0.00041932
     atom    4 type  2   force =     0.00003852   -0.00006763   -0.00002260
     atom    5 type  1   force =    -0.00001766    0.00018203    0.00045654
     atom    6 type  2   force =     0.00011584    0.00009076    0.00072576
     atom    7 type  1   force =    -0.00010206   -0.00023005    0.00051936

     Total force =     0.001496     Total SCF correction =     0.000001

     Computing stress (Cartesian axis) and pressure

     negative rho (up, down):  2.937E-05 0.000E+00
          total   stress  (Ry/bohr**3)                   (kbar)     P=       -4.91
  -0.00001726  -0.00000032  -0.00000097           -2.54       -0.05       -0.14
  -0.00000032  -0.00001689  -0.00000056           -0.05       -2.49       -0.08
  -0.00000097  -0.00000056  -0.00006597           -0.14       -0.08       -9.70

     Energy error            =      9.7E-06 Ry
     Gradient error          =      7.3E-04 Ry/Bohr

     bfgs converged in   3 scf cycles and   2 bfgs steps
     (criteria: energy <  1.0E-04 Ry, force <  1.0E-03 Ry/Bohr)

     End of BFGS Geometry Optimization

     Final energy             =   -2759.1631412780 Ry

     File /scratch/as3359/Ta4C3_loop/Ta.bfgs deleted, as requested
Begin final coordinates

ATOMIC_POSITIONS (alat)
Ta            0.0000408956        0.6070318020       -0.1703335963
C             0.0002511341        0.0005928393        0.2265443638
Ta            0.5255276513        0.3037199489        0.6690179839
C             0.0002771084        0.6069602646        1.1221242715
Ta            0.0002681444        0.0004611417        1.5751488834
C             0.5254190326        0.3037991788        2.0175711117
Ta            0.0003354337        0.6072027247        2.4144936820
End final coordinates

     Writing output data file /scratch/as3359/Ta4C3_loop/Ta.save/

     General routines

     Parallel routines

   This run was terminated on:  18:46:35   8Apr2022

   JOB DONE.