     Program PWSCF v.6.8 starts on  7Apr2022 at 11:29:19

     R & G space division:  proc/nbgrp/npool/nimage =       2

     Reading input from Ta4C3.vcrelax.in

     Current dimensions of program PWSCF are:
     Max number of different atomic species (ntypx) = 10
     Max number of k-points (npk) =  40000
     Max angular momentum in pseudopotentials (lmaxx) =  4
     file Ta.pbesol-spfn-rrkjus_psl.1.0.0.UPF: wavefunction(s)  5S 5P renormalized

     Subspace diagonalization in iterative solution of the eigenvalue problem:
     a serial algorithm will be used

     Using Slab Decomposition

     bravais-lattice index     =            0
     lattice parameter (alat)  =       5.5500  a.u.
     unit-cell volume          =    1242.1942 (a.u.)^3
     number of atoms/cell      =            7
     number of atomic types    =            2
     number of electrons       =       120.00
     number of Kohn-Sham states=           72
     kinetic-energy cutoff     =      60.0000  Ry
     charge density cutoff     =     400.0000  Ry
     scf convergence threshold =      1.0E-12
     mixing beta               =       0.7000
     number of iterations used =            8  plain     mixing
     energy convergence thresh.=      1.0E-04
     force convergence thresh. =      1.0E-03
     press convergence thresh. =      5.0E-01
     Exchange-correlation= PBESOL
                           (   1   4  10   8   0   0   0)
     nstep                     =           50

     celldm(1)=   5.550000  celldm(2)=   0.000000  celldm(3)=   0.000000
     celldm(4)=   0.000000  celldm(5)=   0.000000  celldm(6)=   0.000000

     crystal axes: (cart. coord. in units of alat)
               a(1) = (   1.182549   0.000005   0.000000 )
               a(2) = (  -0.591270   1.024092   0.000000 )
               a(3) = (   0.000000   0.000000   6.000000 )

     reciprocal axes: (cart. coord. in units 2 pi/alat)
               b(1) = (  0.845629  0.488232  0.000000 )
               b(2) = ( -0.000005  0.976472  0.000000 )
               b(3) = (  0.000000  0.000000  0.166667 )

     PseudoPot. # 1 for Ta read from file:
     /shared/home/as3359/pseudo/Ta.pbesol-spfn-rrkjus_psl.1.0.0.UPF
     MD5 check sum: f099565ffaca9b150a52e9412a28e20b
     Pseudo is Ultrasoft + core correction, Zval = 27.0
     Generated using &quot;atomic&quot; code by A. Dal Corso  v.6.3
     Using radial grid of 1273 points,  8 beta functions with:
                l(1) =   0
                l(2) =   0
                l(3) =   1
                l(4) =   1
                l(5) =   2
                l(6) =   2
                l(7) =   3
                l(8) =   3
     Q(r) pseudized with 0 coefficients

     PseudoPot. # 2 for C  read from file:
     /shared/home/as3359/pseudo/C.pbesol-n-rrkjus_psl.1.0.0.UPF
     MD5 check sum: 05995be603a8a7c99da3dc4413f31573
     Pseudo is Ultrasoft + core correction, Zval =  4.0
     Generated using &quot;atomic&quot; code by A. Dal Corso  v.6.3MaX
     Using radial grid of 1073 points,  4 beta functions with:
                l(1) =   0
                l(2) =   0
                l(3) =   1
                l(4) =   1
     Q(r) pseudized with 0 coefficients

     atomic species   valence    mass     pseudopotential
        Ta            27.00   180.94788     Ta( 1.00)
        C              4.00    12.01070     C ( 1.00)

     No symmetry found

   Cartesian axes

     site n.     atom                  positions (alat units)
         1           Ta  tau(   1) = (   0.0000020   0.6827271  -0.1614180  )
         2           C   tau(   2) = (  -0.0000003  -0.0000008   0.2347305  )
         3           Ta  tau(   3) = (   0.5912766   0.3413688   0.5574684  )
         4           C   tau(   4) = (   0.0000029   0.6827292   1.0709545  )
         5           Ta  tau(   5) = (  -0.0000004  -0.0000009   1.5238175  )
         6           C   tau(   6) = (   0.5912766   0.3413690   2.0864468  )
         7           Ta  tau(   7) = (   0.0000043   0.6827325   2.5425670  )

     number of k points=    74  Marzari-Vanderbilt smearing, width (Ry)=  0.0010
                       cart. coord. in units 2pi/alat
        k(    1) = (   0.0000000   0.0000000   0.0000000), wk =   0.0138889
        k(    2) = (  -0.0000004   0.0813727   0.0000000), wk =   0.0277778
        k(    3) = (  -0.0000008   0.1627454   0.0000000), wk =   0.0277778
        k(    4) = (  -0.0000011   0.2441180   0.0000000), wk =   0.0277778
        k(    5) = (  -0.0000015   0.3254907   0.0000000), wk =   0.0277778
        k(    6) = (  -0.0000019   0.4068634   0.0000000), wk =   0.0277778
        k(    7) = (   0.0000023  -0.4882361   0.0000000), wk =   0.0138889
        k(    8) = (   0.0704691   0.0406860   0.0000000), wk =   0.0277778
        k(    9) = (   0.0704687   0.1220587   0.0000000), wk =   0.0277778
        k(   10) = (   0.0704683   0.2034314   0.0000000), wk =   0.0277778
        k(   11) = (   0.0704679   0.2848041   0.0000000), wk =   0.0277778
        k(   12) = (   0.0704675   0.3661767   0.0000000), wk =   0.0277778
        k(   13) = (   0.0704672   0.4475494   0.0000000), wk =   0.0277778
        k(   14) = (   0.0704713  -0.4475501   0.0000000), wk =   0.0277778
        k(   15) = (   0.0704709  -0.3661774   0.0000000), wk =   0.0277778
        k(   16) = (   0.0704706  -0.2848047   0.0000000), wk =   0.0277778
        k(   17) = (   0.0704702  -0.2034320   0.0000000), wk =   0.0277778
        k(   18) = (   0.0704698  -0.1220593   0.0000000), wk =   0.0277778
        k(   19) = (   0.0704694  -0.0406867   0.0000000), wk =   0.0277778
        k(   20) = (   0.1409381   0.0813720   0.0000000), wk =   0.0277778
        k(   21) = (   0.1409377   0.1627447   0.0000000), wk =   0.0277778
        k(   22) = (   0.1409374   0.2441174   0.0000000), wk =   0.0277778
        k(   23) = (   0.1409370   0.3254901   0.0000000), wk =   0.0277778
        k(   24) = (   0.1409366   0.4068627   0.0000000), wk =   0.0277778
        k(   25) = (   0.1409362   0.4882354   0.0000000), wk =   0.0277778
        k(   26) = (   0.1409404  -0.4068641   0.0000000), wk =   0.0277778
        k(   27) = (   0.1409400  -0.3254914   0.0000000), wk =   0.0277778
        k(   28) = (   0.1409396  -0.2441187   0.0000000), wk =   0.0277778
        k(   29) = (   0.1409392  -0.1627460   0.0000000), wk =   0.0277778
        k(   30) = (   0.1409389  -0.0813733   0.0000000), wk =   0.0277778
        k(   31) = (   0.1409385  -0.0000007   0.0000000), wk =   0.0277778
        k(   32) = (   0.2114072   0.1220580   0.0000000), wk =   0.0277778
        k(   33) = (   0.2114068   0.2034307   0.0000000), wk =   0.0277778
        k(   34) = (   0.2114064   0.2848034   0.0000000), wk =   0.0277778
        k(   35) = (   0.2114060   0.3661761   0.0000000), wk =   0.0277778
        k(   36) = (   0.2114057   0.4475488   0.0000000), wk =   0.0277778
        k(   37) = (   0.2114053   0.5289214   0.0000000), wk =   0.0277778
        k(   38) = (   0.2114094  -0.3661780   0.0000000), wk =   0.0277778
        k(   39) = (   0.2114091  -0.2848054   0.0000000), wk =   0.0277778
        k(   40) = (   0.2114087  -0.2034327   0.0000000), wk =   0.0277778
        k(   41) = (   0.2114083  -0.1220600   0.0000000), wk =   0.0277778
        k(   42) = (   0.2114079  -0.0406873   0.0000000), wk =   0.0277778
        k(   43) = (   0.2114075   0.0406854   0.0000000), wk =   0.0277778
        k(   44) = (   0.2818762   0.1627441   0.0000000), wk =   0.0277778
        k(   45) = (   0.2818758   0.2441167   0.0000000), wk =   0.0277778
        k(   46) = (   0.2818755   0.3254894   0.0000000), wk =   0.0277778
        k(   47) = (   0.2818751   0.4068621   0.0000000), wk =   0.0277778
        k(   48) = (   0.2818747   0.4882348   0.0000000), wk =   0.0277778
        k(   49) = (   0.2818743   0.5696074   0.0000000), wk =   0.0277778
        k(   50) = (   0.2818785  -0.3254920   0.0000000), wk =   0.0277778
        k(   51) = (   0.2818781  -0.2441193   0.0000000), wk =   0.0277778
        k(   52) = (   0.2818777  -0.1627467   0.0000000), wk =   0.0277778
        k(   53) = (   0.2818773  -0.0813740   0.0000000), wk =   0.0277778
        k(   54) = (   0.2818770  -0.0000013   0.0000000), wk =   0.0277778
        k(   55) = (   0.2818766   0.0813714   0.0000000), wk =   0.0277778
        k(   56) = (   0.3523453   0.2034301   0.0000000), wk =   0.0277778
        k(   57) = (   0.3523449   0.2848027   0.0000000), wk =   0.0277778
        k(   58) = (   0.3523445   0.3661754   0.0000000), wk =   0.0277778
        k(   59) = (   0.3523441   0.4475481   0.0000000), wk =   0.0277778
        k(   60) = (   0.3523438   0.5289208   0.0000000), wk =   0.0277778
        k(   61) = (   0.3523434   0.6102935   0.0000000), wk =   0.0277778
        k(   62) = (   0.3523475  -0.2848060   0.0000000), wk =   0.0277778
        k(   63) = (   0.3523472  -0.2034333   0.0000000), wk =   0.0277778
        k(   64) = (   0.3523468  -0.1220607   0.0000000), wk =   0.0277778
        k(   65) = (   0.3523464  -0.0406880   0.0000000), wk =   0.0277778
        k(   66) = (   0.3523460   0.0406847   0.0000000), wk =   0.0277778
        k(   67) = (   0.3523456   0.1220574   0.0000000), wk =   0.0277778
        k(   68) = (  -0.4228143  -0.2441161   0.0000000), wk =   0.0138889
        k(   69) = (  -0.4228147  -0.1627434   0.0000000), wk =   0.0277778
        k(   70) = (  -0.4228151  -0.0813707   0.0000000), wk =   0.0277778
        k(   71) = (  -0.4228155   0.0000020   0.0000000), wk =   0.0277778
        k(   72) = (  -0.4228158   0.0813746   0.0000000), wk =   0.0277778
        k(   73) = (  -0.4228162   0.1627473   0.0000000), wk =   0.0277778
        k(   74) = (  -0.4228121  -0.7323522   0.0000000), wk =   0.0138889

     Check: negative core charge=   -0.000002

     Initial potential from superposition of free atoms

     starting charge  119.99679, renormalised to  120.00000
     Starting wfcs are   80 randomized atomic wfcs

     Self-consistent Calculation

     iteration #  1     ecut=    60.00 Ry     beta= 0.70
     CG style diagonalization
     ethr =  1.00E-02,  avg # of iterations =  2.2

     total energy              =   -2754.44506139 Ry
     estimated scf accuracy    <       5.49923666 Ry

     iteration #  2     ecut=    60.00 Ry     beta= 0.70
     CG style diagonalization
     c_bands:  1 eigenvalues not converged
     c_bands:  1 eigenvalues not converged
     c_bands:  1 eigenvalues not converged
     c_bands:  1 eigenvalues not converged
     c_bands:  1 eigenvalues not converged
     ethr =  4.58E-03,  avg # of iterations =  4.0

[...]

     negative rho (up, down):  1.079E-07 0.000E+00

[...]

     iteration # 13     ecut=    60.00 Ry     beta= 0.70
     CG style diagonalization
     ethr =  4.32E-06,  avg # of iterations =  3.4
     Minimization algorithm failed to find Fermi energy: reverting to bisection
     Possible cause: smearing is larger than the electronic band-gap.

[...]

     End of self-consistent calculation

          k = 0.0000 0.0000 0.0000 (  9677 PWs)   bands (ev):

   -61.4435 -60.9165 -60.6766 -60.5287 -27.8076 -27.6564 -27.6564 -27.3840
[...]
     Minimization algorithm failed to find Fermi energy: reverting to bisection
     Possible cause: smearing is larger than the electronic band-gap.

[...]

     number of scf cycles    =  12
     number of bfgs steps    =  11

     enthalpy           old  =   -2759.1717148325 Ry
     enthalpy           new  =   -2759.1717994962 Ry

     CASE: enthalpy          _new < enthalpy          _old

     new trust radius        =       0.0032715159 bohr
     new conv_thr            =            1.0E-14 Ry

     new unit-cell volume =    983.31231 a.u.^3 (   145.71185 Ang^3 )
     density =      8.65899 g/cm^3

[...]

ATOMIC_POSITIONS (crystal)
Ta            0.3333327624        0.6666660003       -0.0282473143
C            -0.0000003331       -0.0000003858        0.0377582065
Ta            0.6666666943        0.3333333674        0.1115388299
C             0.3333335058        0.6666668642        0.1870122143
Ta            0.0000001824        0.0000002059        0.2625029763
C             0.6666669195        0.3333336265        0.3362499259
Ta            0.3333336019        0.6666669885        0.4022796053

     Writing output data file /scratch/as3359/Ta4C3_loop/Ta.save/
     NEW-OLD atomic charge density approx. for the potential

[...]

     negative rho (up, down):  3.488E-08 0.000E+00
     extrapolated charge  119.99831, renormalised to  120.00000

[...]

     negative rho (up, down):  3.392E-08 0.000E+00
          total   stress  (Ry/bohr**3)                   (kbar)     P=       -1.75
  -0.00000020   0.00000000  -0.00000000           -0.03        0.00       -0.00
   0.00000000  -0.00000021  -0.00000000            0.00       -0.03       -0.00
  -0.00000000  -0.00000000  -0.00003535           -0.00       -0.00       -5.20

     Energy error            =      7.3E-06 Ry
     Gradient error          =      4.4E-04 Ry/Bohr
     Cell gradient error     =      3.1E-02 kbar

     bfgs converged in  13 scf cycles and  12 bfgs steps
     (criteria: energy <  1.0E-04 Ry, force <  1.0E-03Ry/Bohr, cell <  5.0E-01kbar)

     End of BFGS Geometry Optimization

     Final enthalpy           =   -2759.1718067589 Ry

     File /scratch/as3359/Ta4C3_loop/Ta.bfgs deleted, as requested
Begin final coordinates
     new unit-cell volume =    983.31231 a.u.^3 (   145.71185 Ang^3 )
     density =      8.65899 g/cm^3

CELL_PARAMETERS (alat=  5.55000000)
   1.052119753  -0.000000171   0.000000000
  -0.526060024   0.911163138   0.000000000
   0.000000000   0.000000000   6.000000000

ATOMIC_POSITIONS (crystal)
Ta            0.3333327624        0.6666660003       -0.0282473143
C            -0.0000003331       -0.0000003858        0.0377582065
Ta            0.6666666943        0.3333333674        0.1115388299
C             0.3333335058        0.6666668642        0.1870122143
Ta            0.0000001824        0.0000002059        0.2625029763
C             0.6666669195        0.3333336265        0.3362499259
Ta            0.3333336019        0.6666669885        0.4022796053
End final coordinates

     Writing output data file /scratch/as3359/Ta4C3_loop/Ta.save/

     Final scf calculation at the relaxed structure.
     The G-vectors are recalculated for the final unit cell
     Results may differ from those at the preceding step.

     Using Slab Decomposition

     bravais-lattice index     =            0
     lattice parameter (alat)  =       5.5500  a.u.
     unit-cell volume          =     983.3123 (a.u.)^3
     number of atoms/cell      =            7
     number of atomic types    =            2
     number of electrons       =       120.00
     number of Kohn-Sham states=           72
     kinetic-energy cutoff     =      60.0000  Ry
     charge density cutoff     =     400.0000  Ry
     scf convergence threshold =      1.0E-14
     mixing beta               =       0.7000
     number of iterations used =            8  plain     mixing
     press convergence thresh. =      5.0E-01
     Exchange-correlation= PBESOL
                           (   1   4  10   8   0   0   0)

     celldm(1)=   5.550000  celldm(2)=   0.000000  celldm(3)=   0.000000
     celldm(4)=   0.000000  celldm(5)=   0.000000  celldm(6)=   0.000000

     crystal axes: (cart. coord. in units of alat)
               a(1) = (   1.052120  -0.000000   0.000000 )
               a(2) = (  -0.526060   0.911163   0.000000 )
               a(3) = (   0.000000   0.000000   6.000000 )

     reciprocal axes: (cart. coord. in units 2 pi/alat)
               b(1) = (  0.950462  0.548749  0.000000 )
               b(2) = (  0.000000  1.097498  0.000000 )
               b(3) = (  0.000000  0.000000  0.166667 )

     PseudoPot. # 1 for Ta read from file:
     /shared/home/as3359/pseudo/Ta.pbesol-spfn-rrkjus_psl.1.0.0.UPF
     MD5 check sum: f099565ffaca9b150a52e9412a28e20b
     Pseudo is Ultrasoft + core correction, Zval = 27.0
     Generated using &quot;atomic&quot; code by A. Dal Corso  v.6.3
     Using radial grid of 1273 points,  8 beta functions with:
                l(1) =   0
                l(2) =   0
                l(3) =   1
                l(4) =   1
                l(5) =   2
                l(6) =   2
                l(7) =   3
                l(8) =   3
     Q(r) pseudized with 0 coefficients

     PseudoPot. # 2 for C  read from file:
     /shared/home/as3359/pseudo/C.pbesol-n-rrkjus_psl.1.0.0.UPF
     MD5 check sum: 05995be603a8a7c99da3dc4413f31573
     Pseudo is Ultrasoft + core correction, Zval =  4.0
     Generated using &quot;atomic&quot; code by A. Dal Corso  v.6.3MaX
     Using radial grid of 1073 points,  4 beta functions with:
                l(1) =   0
                l(2) =   0
                l(3) =   1
                l(4) =   1
     Q(r) pseudized with 0 coefficients

     atomic species   valence    mass     pseudopotential
        Ta            27.00   180.94788     Ta( 1.00)
        C              4.00    12.01070     C ( 1.00)

     No symmetry found

   Cartesian axes

     site n.     atom                  positions (alat units)
         1           Ta  tau(   1) = (  -0.0000003   0.6074414  -0.1694839  )
         2           C   tau(   2) = (  -0.0000001  -0.0000004   0.2265492  )
         3           Ta  tau(   3) = (   0.5260598   0.3037210   0.6692330  )
         4           C   tau(   4) = (  -0.0000000   0.6074422   1.1220733  )
         5           Ta  tau(   5) = (   0.0000001   0.0000002   1.5750179  )
         6           C   tau(   6) = (   0.5260599   0.3037212   2.0174996  )
         7           Ta  tau(   7) = (   0.0000000   0.6074423   2.4136776  )

     number of k points=    74  Marzari-Vanderbilt smearing, width (Ry)=  0.0010
                       cart. coord. in units 2pi/alat
        k(    1) = (   0.0000000   0.0000000   0.0000000), wk =   0.0138889
        k(    2) = (   0.0000000   0.0914582   0.0000000), wk =   0.0277778
        k(    3) = (   0.0000000   0.1829164   0.0000000), wk =   0.0277778
        k(    4) = (   0.0000000   0.2743746   0.0000000), wk =   0.0277778
        k(    5) = (   0.0000001   0.3658328   0.0000000), wk =   0.0277778
        k(    6) = (   0.0000001   0.4572910   0.0000000), wk =   0.0277778
        k(    7) = (  -0.0000001  -0.5487492   0.0000000), wk =   0.0138889
        k(    8) = (   0.0792052   0.0457291   0.0000000), wk =   0.0277778
        k(    9) = (   0.0792052   0.1371873   0.0000000), wk =   0.0277778
        k(   10) = (   0.0792052   0.2286455   0.0000000), wk =   0.0277778
        k(   11) = (   0.0792052   0.3201037   0.0000000), wk =   0.0277778
        k(   12) = (   0.0792052   0.4115619   0.0000000), wk =   0.0277778
        k(   13) = (   0.0792053   0.5030201   0.0000000), wk =   0.0277778
        k(   14) = (   0.0792051  -0.5030201   0.0000000), wk =   0.0277778
        k(   15) = (   0.0792051  -0.4115619   0.0000000), wk =   0.0277778
        k(   16) = (   0.0792051  -0.3201037   0.0000000), wk =   0.0277778
        k(   17) = (   0.0792051  -0.2286455   0.0000000), wk =   0.0277778
        k(   18) = (   0.0792052  -0.1371873   0.0000000), wk =   0.0277778
        k(   19) = (   0.0792052  -0.0457291   0.0000000), wk =   0.0277778
        k(   20) = (   0.1584104   0.0914582   0.0000000), wk =   0.0277778
        k(   21) = (   0.1584104   0.1829164   0.0000000), wk =   0.0277778
        k(   22) = (   0.1584104   0.2743746   0.0000000), wk =   0.0277778
        k(   23) = (   0.1584104   0.3658328   0.0000000), wk =   0.0277778
        k(   24) = (   0.1584104   0.4572910   0.0000000), wk =   0.0277778
        k(   25) = (   0.1584104   0.5487492   0.0000000), wk =   0.0277778
        k(   26) = (   0.1584103  -0.4572910   0.0000000), wk =   0.0277778
        k(   27) = (   0.1584103  -0.3658328   0.0000000), wk =   0.0277778
        k(   28) = (   0.1584103  -0.2743746   0.0000000), wk =   0.0277778
        k(   29) = (   0.1584103  -0.1829164   0.0000000), wk =   0.0277778
        k(   30) = (   0.1584103  -0.0914582   0.0000000), wk =   0.0277778
        k(   31) = (   0.1584104   0.0000000   0.0000000), wk =   0.0277778
        k(   32) = (   0.2376156   0.1371873   0.0000000), wk =   0.0277778
        k(   33) = (   0.2376156   0.2286455   0.0000000), wk =   0.0277778
        k(   34) = (   0.2376156   0.3201037   0.0000000), wk =   0.0277778
        k(   35) = (   0.2376156   0.4115619   0.0000000), wk =   0.0277778
        k(   36) = (   0.2376156   0.5030201   0.0000000), wk =   0.0277778
        k(   37) = (   0.2376156   0.5944783   0.0000000), wk =   0.0277778
        k(   38) = (   0.2376155  -0.4115619   0.0000000), wk =   0.0277778
        k(   39) = (   0.2376155  -0.3201037   0.0000000), wk =   0.0277778
        k(   40) = (   0.2376155  -0.2286455   0.0000000), wk =   0.0277778
        k(   41) = (   0.2376155  -0.1371873   0.0000000), wk =   0.0277778
        k(   42) = (   0.2376155  -0.0457291   0.0000000), wk =   0.0277778
        k(   43) = (   0.2376155   0.0457291   0.0000000), wk =   0.0277778
        k(   44) = (   0.3168207   0.1829165   0.0000000), wk =   0.0277778
        k(   45) = (   0.3168208   0.2743747   0.0000000), wk =   0.0277778
        k(   46) = (   0.3168208   0.3658329   0.0000000), wk =   0.0277778
        k(   47) = (   0.3168208   0.4572911   0.0000000), wk =   0.0277778
        k(   48) = (   0.3168208   0.5487493   0.0000000), wk =   0.0277778
        k(   49) = (   0.3168208   0.6402075   0.0000000), wk =   0.0277778
        k(   50) = (   0.3168207  -0.3658328   0.0000000), wk =   0.0277778
        k(   51) = (   0.3168207  -0.2743746   0.0000000), wk =   0.0277778
        k(   52) = (   0.3168207  -0.1829164   0.0000000), wk =   0.0277778
        k(   53) = (   0.3168207  -0.0914581   0.0000000), wk =   0.0277778
        k(   54) = (   0.3168207   0.0000001   0.0000000), wk =   0.0277778
        k(   55) = (   0.3168207   0.0914583   0.0000000), wk =   0.0277778
        k(   56) = (   0.3960259   0.2286456   0.0000000), wk =   0.0277778
        k(   57) = (   0.3960259   0.3201038   0.0000000), wk =   0.0277778
        k(   58) = (   0.3960260   0.4115620   0.0000000), wk =   0.0277778
        k(   59) = (   0.3960260   0.5030202   0.0000000), wk =   0.0277778
        k(   60) = (   0.3960260   0.5944784   0.0000000), wk =   0.0277778
        k(   61) = (   0.3960260   0.6859366   0.0000000), wk =   0.0277778
        k(   62) = (   0.3960258  -0.3201036   0.0000000), wk =   0.0277778
        k(   63) = (   0.3960259  -0.2286454   0.0000000), wk =   0.0277778
        k(   64) = (   0.3960259  -0.1371872   0.0000000), wk =   0.0277778
        k(   65) = (   0.3960259  -0.0457290   0.0000000), wk =   0.0277778
        k(   66) = (   0.3960259   0.0457292   0.0000000), wk =   0.0277778
        k(   67) = (   0.3960259   0.1371874   0.0000000), wk =   0.0277778
        k(   68) = (  -0.4752311  -0.2743747   0.0000000), wk =   0.0138889
        k(   69) = (  -0.4752311  -0.1829165   0.0000000), wk =   0.0277778
        k(   70) = (  -0.4752311  -0.0914583   0.0000000), wk =   0.0277778
        k(   71) = (  -0.4752311  -0.0000001   0.0000000), wk =   0.0277778
        k(   72) = (  -0.4752311   0.0914581   0.0000000), wk =   0.0277778
        k(   73) = (  -0.4752310   0.1829163   0.0000000), wk =   0.0277778
        k(   74) = (  -0.4752312  -0.8231239   0.0000000), wk =   0.0138889

     Check: negative core charge=   -0.000002

     Initial potential from superposition of free atoms

     starting charge  119.99679, renormalised to  120.00000
     Starting wfcs are   80 randomized atomic wfcs

     Self-consistent Calculation

     iteration #  1     ecut=    60.00 Ry     beta= 0.70
     CG style diagonalization
     c_bands:  4 eigenvalues not converged
     c_bands:  2 eigenvalues not converged
     c_bands:  5 eigenvalues not converged
     c_bands:  2 eigenvalues not converged
     c_bands:  5 eigenvalues not converged
     c_bands:  4 eigenvalues not converged
     c_bands:  3 eigenvalues not converged
     c_bands:  1 eigenvalues not converged
     c_bands:  5 eigenvalues not converged
     c_bands:  5 eigenvalues not converged
     c_bands:  4 eigenvalues not converged
     c_bands:  3 eigenvalues not converged
     c_bands:  5 eigenvalues not converged
     c_bands:  5 eigenvalues not converged
     c_bands:  4 eigenvalues not converged
     c_bands:  5 eigenvalues not converged
     c_bands:  5 eigenvalues not converged
     c_bands:  4 eigenvalues not converged
     c_bands:  3 eigenvalues not converged
     c_bands:  1 eigenvalues not converged
     c_bands:  5 eigenvalues not converged
     c_bands:  3 eigenvalues not converged
     c_bands:  2 eigenvalues not converged
     c_bands:  3 eigenvalues not converged
     ethr =  1.00E-06,  avg # of iterations = 12.9

     negative rho (up, down):  1.985E-06 0.000E+00

[...]

     WARNING: integrated charge=   120.00001550, expected=   120.00000000

[...]

     total energy              =   -2759.16326701 Ry
     estimated scf accuracy    <          3.0E-14 Ry

     iteration # 40     ecut=    60.00 Ry     beta= 0.70
     CG style diagonalization
     ethr =  1.00E-13,  avg # of iterations =  3.0

     End of self-consistent calculation

[...]

          k = 0.3960 0.1372 0.0000 (  7716 PWs)   bands (ev):

[...]

          k =-0.4752-0.8231 0.0000 (  7704 PWs)   bands (ev):

   -57.4957 -57.4895 -56.9961 -56.9955 -24.5149 -24.4603 -24.1639 -24.0785
   -23.9835 -23.9142 -23.7471 -23.7462 -23.6217 -23.6038 -23.3248 -23.3239
    -9.2158  -9.1988  -9.1981  -9.1974  -9.1968  -9.1917  -9.1826  -9.1774
    -9.1771  -9.1762  -9.1754  -9.1747  -9.1721  -9.1665  -8.7605  -8.7599
    -8.7557  -8.7550  -8.7422  -8.7415  -8.7189  -8.7182  -8.7006  -8.7000
    -8.6788  -8.6782  -8.6651  -8.6645  -1.3523  -0.6865   0.4435   2.8017
     4.1294   5.6154   5.9696   5.9872   6.2178   6.8147   6.8525   6.9527
     8.5501   9.9518  11.1677  11.2122  12.2974  13.5108  13.5945  13.7601
    14.0277  14.3866  14.8034  15.2927  15.3294  15.3361  15.6593  15.7637

     the Fermi energy is    11.0476 ev

!    total energy              =   -2759.16326701 Ry
     estimated scf accuracy    <          7.0E-15 Ry
     smearing contrib. (-TS)   =      -0.00001272 Ry
     internal energy E=F+TS    =   -2759.16325429 Ry

     The total energy is F=E-TS. E is the sum of the following terms:
     one-electron contribution =   -8668.81263399 Ry
     hartree contribution      =    4440.40128810 Ry
     xc contribution           =    -282.39220992 Ry
     ewald contribution        =    1751.64030152 Ry

     convergence has been achieved in  40 iterations

     Forces acting on atoms (cartesian axes, Ry/au):

     atom    1 type  1   force =     0.00000009    0.00000025   -0.00055196
     atom    2 type  2   force =     0.00000001    0.00000003    0.00040198
     atom    3 type  1   force =    -0.00000004   -0.00000011   -0.00046426
     atom    4 type  2   force =    -0.00000008   -0.00000018    0.00011866
     atom    5 type  1   force =    -0.00000004   -0.00000008    0.00016256
     atom    6 type  2   force =     0.00000002    0.00000005   -0.00011724
     atom    7 type  1   force =     0.00000003    0.00000003    0.00045026

     Total force =     0.000969     Total SCF correction =     0.000001

     Computing stress (Cartesian axis) and pressure

          total   stress  (Ry/bohr**3)                   (kbar)     P=       -9.95
  -0.00006470   0.00000000  -0.00000000           -9.52        0.00       -0.00
   0.00000000  -0.00006470  -0.00000000            0.00       -9.52       -0.00
  -0.00000000  -0.00000000  -0.00007359           -0.00       -0.00      -10.83

     Writing output data file /scratch/as3359/Ta4C3_loop/Ta.save/

     General routines

     Parallel routines

   This run was terminated on:  21:31:24   7Apr2022

   JOB DONE.