     Program PWSCF v.6.8 starts on 21Apr2022 at 21: 3: 7

     R & G space division:  proc/nbgrp/npool/nimage =       2

     Reading input from Ta2CH2.vcrelax.in

     Current dimensions of program PWSCF are:
     Max number of different atomic species (ntypx) = 10
     Max number of k-points (npk) =  40000
     Max angular momentum in pseudopotentials (lmaxx) =  4
     file Ta.pbesol-spfn-rrkjus_psl.1.0.0.UPF: wavefunction(s)  5S 5P renormalized
     Message from routine setup:
     using ibrav=0 with symmetry is DISCOURAGED, use correct ibrav instead

     Subspace diagonalization in iterative solution of the eigenvalue problem:
     a serial algorithm will be used

     Using Slab Decomposition

     bravais-lattice index     =            0
     lattice parameter (alat)  =       5.5500  a.u.
     unit-cell volume          =    1603.2166 (a.u.)^3
     number of atoms/cell      =            5
     number of atomic types    =            3
     number of electrons       =        60.00
     number of Kohn-Sham states=           36
     kinetic-energy cutoff     =      70.0000  Ry
     charge density cutoff     =     700.0000  Ry
     scf convergence threshold =      1.0E-12
     mixing beta               =       0.7000
     number of iterations used =            8  plain     mixing
     energy convergence thresh.=      1.0E-04
     force convergence thresh. =      1.0E-03
     press convergence thresh. =      5.0E-01
     Exchange-correlation= PBESOL
                           (   1   4  10   8   0   0   0)
     nstep                     =           50

     celldm(1)=   5.550000  celldm(2)=   0.000000  celldm(3)=   0.000000
     celldm(4)=   0.000000  celldm(5)=   0.000000  celldm(6)=   0.000000

     crystal axes: (cart. coord. in units of alat)
               a(1) = (   1.040618   0.000000   0.000000 )
               a(2) = (  -0.520309   0.901202   0.000000 )
               a(3) = (   0.000000   0.000000  10.000000 )

     reciprocal axes: (cart. coord. in units 2 pi/alat)
               b(1) = (  0.960967  0.554815  0.000000 )
               b(2) = (  0.000000  1.109630  0.000000 )
               b(3) = (  0.000000  0.000000  0.100000 )

     PseudoPot. # 1 for Ta read from file:
     /shared/home/as3359/pseudo/Ta.pbesol-spfn-rrkjus_psl.1.0.0.UPF
     MD5 check sum: f099565ffaca9b150a52e9412a28e20b
     Pseudo is Ultrasoft + core correction, Zval = 27.0
     Generated using &quot;atomic&quot; code by A. Dal Corso  v.6.3
     Using radial grid of 1273 points,  8 beta functions with:
                l(1) =   0
                l(2) =   0
                l(3) =   1
                l(4) =   1
                l(5) =   2
                l(6) =   2
                l(7) =   3
                l(8) =   3
     Q(r) pseudized with 0 coefficients

     PseudoPot. # 2 for C  read from file:
     /shared/home/as3359/pseudo/C.pbesol-n-rrkjus_psl.1.0.0.UPF
     MD5 check sum: 05995be603a8a7c99da3dc4413f31573
     Pseudo is Ultrasoft + core correction, Zval =  4.0
     Generated using &quot;atomic&quot; code by A. Dal Corso  v.6.3MaX
     Using radial grid of 1073 points,  4 beta functions with:
                l(1) =   0
                l(2) =   0
                l(3) =   1
                l(4) =   1
     Q(r) pseudized with 0 coefficients

     PseudoPot. # 3 for H  read from file:
     /shared/home/as3359/pseudo/H.pbesol-rrkjus_psl.0.1.UPF
     MD5 check sum: 1dbb1a5c48b1283557b8117eb856a7ca
     Pseudo is Ultrasoft, Zval =  1.0
     Generated using "atomic" code by A. Dal Corso  v.5.0.2 svn rev. 9415
     Using radial grid of  929 points,  2 beta functions with:
                l(1) =   0
                l(2) =   0
     Q(r) pseudized with 0 coefficients

     atomic species   valence    mass     pseudopotential
        Ta            27.00   180.94788     Ta( 1.00)
        C              4.00    12.01070     C ( 1.00)
        H              1.00     1.00000     H ( 1.00)

      6 Sym. Ops. (no inversion) found

   Cartesian axes

     site n.     atom                  positions (alat units)
         1           C   tau(   1) = (   0.0000000   0.0000000   0.0000000  )
         2           Ta  tau(   2) = (   0.5203090   0.3004005  -0.4156024  )
         3           Ta  tau(   3) = (  -0.0000000   0.6008011   0.4260806  )
         4           H   tau(   4) = (  -0.0000000   0.6008011   1.0359681  )
         5           H   tau(   5) = (  -0.0000000   0.6008011  -1.0359681  )

     number of k points=    19  Marzari-Vanderbilt smearing, width (Ry)=  0.0010
                       cart. coord. in units 2pi/alat
        k(    1) = (   0.0000000   0.0000000   0.0000000), wk =   0.0138889
        k(    2) = (   0.0000000   0.0924691   0.0000000), wk =   0.0833333
        k(    3) = (   0.0000000   0.1849383   0.0000000), wk =   0.0833333
        k(    4) = (   0.0000000   0.2774074   0.0000000), wk =   0.0833333
        k(    5) = (   0.0000000   0.3698766   0.0000000), wk =   0.0833333
        k(    6) = (   0.0000000   0.4623457   0.0000000), wk =   0.0833333
        k(    7) = (   0.0000000  -0.5548148   0.0000000), wk =   0.0416667
        k(    8) = (   0.0800806   0.1387037   0.0000000), wk =   0.0833333
        k(    9) = (   0.0800806   0.2311728   0.0000000), wk =   0.1666667
        k(   10) = (   0.0800806   0.3236420   0.0000000), wk =   0.1666667
        k(   11) = (   0.0800806   0.4161111   0.0000000), wk =   0.1666667
        k(   12) = (   0.0800806   0.5085803   0.0000000), wk =   0.1666667
        k(   13) = (   0.1601612   0.2774074   0.0000000), wk =   0.0833333
        k(   14) = (   0.1601612   0.3698766   0.0000000), wk =   0.1666667
        k(   15) = (   0.1601612   0.4623457   0.0000000), wk =   0.1666667
        k(   16) = (   0.1601612   0.5548148   0.0000000), wk =   0.0833333
        k(   17) = (   0.2402419   0.4161111   0.0000000), wk =   0.0833333
        k(   18) = (   0.2402419   0.5085803   0.0000000), wk =   0.1666667
        k(   19) = (   0.3203225   0.5548148   0.0000000), wk =   0.0277778

     Initial potential from superposition of free atoms

     starting charge   59.99840, renormalised to   60.00000

     negative rho (up, down):  4.225E-05 0.000E+00
     Starting wfcs are   40 randomized atomic wfcs

     Self-consistent Calculation

     iteration #  1     ecut=    70.00 Ry     beta= 0.70
     Davidson diagonalization with overlap
     ethr =  1.00E-02,  avg # of iterations =  2.2

     negative rho (up, down):  1.560E-05 0.000E+00

     total energy              =   -1374.76367326 Ry
     estimated scf accuracy    <       1.25891880 Ry

[...]

     End of self-consistent calculation

          k = 0.0000 0.0000 0.0000 ( 15945 PWs)   bands (ev):

   -69.4443 -68.7307 -36.1573 -35.6002 -35.6002 -35.1648 -34.9843 -34.9843
   -21.1144 -21.0954 -21.0954 -21.0846 -21.0820 -21.0820 -21.0268 -20.4099
   -20.3725 -20.3725 -20.3469 -20.3154 -20.3084 -20.3084 -14.0956  -8.6938
    -5.5496  -5.0590  -5.0590  -4.1305  -2.6133  -1.1080  -1.1080   0.8751
     0.8751   1.8978   1.8978   2.3267

[...]

     the Fermi energy is    -0.9246 ev

!    total energy              =   -1375.55083607 Ry
     estimated scf accuracy    <          7.4E-13 Ry
     smearing contrib. (-TS)   =      -0.00000205 Ry
     internal energy E=F+TS    =   -1375.55083403 Ry

     The total energy is F=E-TS. E is the sum of the following terms:
     one-electron contribution =  -11180.13576482 Ry
     hartree contribution      =    5617.07337193 Ry
     xc contribution           =    -140.04871185 Ry
     ewald contribution        =    4327.56027071 Ry

     convergence has been achieved in  19 iterations

[...]

     Forces acting on atoms (cartesian axes, Ry/au):

     atom    1 type  2   force =     0.00000000    0.00000000    0.01340353
     atom    2 type  1   force =     0.00000000   -0.00000000   -0.07773336
     atom    3 type  1   force =     0.00000000    0.00000000   -0.01219200
     atom    4 type  3   force =     0.00000000    0.00000000   -0.00468159
     atom    5 type  3   force =     0.00000000    0.00000000    0.08120343

     Total force =     0.113168     Total SCF correction =     0.000008

     Computing stress (Cartesian axis) and pressure

     negative rho (up, down):  7.055E-05 0.000E+00
          total   stress  (Ry/bohr**3)                   (kbar)     P=      -10.47
   0.00000239  -0.00000000   0.00000000            0.35       -0.00        0.00
  -0.00000000   0.00000239   0.00000000           -0.00        0.35        0.00
   0.00000000   0.00000000  -0.00021839            0.00        0.00      -32.13

     BFGS Geometry Optimization
     Energy error            =      0.0E+00 Ry
     Gradient error          =      8.1E-02 Ry/Bohr
     Cell gradient error     =      3.5E-01 kbar

     number of scf cycles    =   1
     number of bfgs steps    =   0

     enthalpy           new  =   -1375.5508360733 Ry

     new trust radius        =       0.0812034251 bohr
     new conv_thr            =            1.0E-12 Ry

     new unit-cell volume =   1603.40848 a.u.^3 (   237.60062 Ang^3 )
     density =      2.62713 g/cm^3

CELL_PARAMETERS (alat=  5.55000000)
   1.040680213  -0.000000000   0.000000000
  -0.520340106   0.901255501   0.000000000
   0.000000000   0.000000000  10.000000000

ATOMIC_POSITIONS (crystal)
C             0.0000000000        0.0000000000        0.0000000000    0   0   0
Ta            0.6666666670        0.3333333330       -0.0429608406
Ta            0.3333333330        0.6666666670        0.0423883883
H             0.3333333330        0.6666666670        0.1035124537
H             0.3333333330        0.6666666670       -0.1021336819

     Writing output data file /scratch/as3359/Ta2CH2-VCrelax/Ta.save/
     NEW-OLD atomic charge density approx. for the potential

     negative rho (up, down):  6.588E-05 0.000E+00
     extrapolated charge   60.00718, renormalised to   60.00000

[...]

     iteration #  3     ecut=    70.00 Ry     beta= 0.70
     Davidson diagonalization with overlap
     c_bands:  1 eigenvalues not converged
     ethr =  3.49E-06,  avg # of iterations =  9.9

[...]

          k =-0.0000-0.5548 0.0000 ( 15870 PWs)   bands (ev):

[...]

     Energy error            =      1.2E-02 Ry
     Gradient error          =      7.7E-02 Ry/Bohr
     Cell gradient error     =      3.2E+00 kbar

[...]

     enthalpy           old  =   -1375.5508360733 Ry
     enthalpy           new  =   -1375.5625611707 Ry

     CASE: enthalpy          _new < enthalpy          _old

     WARNING: bfgs curvature condition failed, Theta= 0.966
     new trust radius        =       0.0893237676 bohr
     new conv_thr            =            7.7E-13 Ry

[...]

     iteration #  3     ecut=    70.00 Ry     beta= 0.70
     Davidson diagonalization with overlap
     ethr =  7.33E-05,  avg # of iterations =  8.6
     Minimization algorithm failed to find Fermi energy: reverting to bisection
     Possible cause: smearing is larger than the electronic band-gap.

[...]

     iteration #  1     ecut=    70.00 Ry     beta= 0.70
     Davidson diagonalization with overlap
     c_bands:  3 eigenvalues not converged
     c_bands:  3 eigenvalues not converged
     c_bands:  3 eigenvalues not converged
     c_bands:  5 eigenvalues not converged
     c_bands:  4 eigenvalues not converged
     c_bands:  4 eigenvalues not converged
     c_bands:  4 eigenvalues not converged
     c_bands:  4 eigenvalues not converged
     c_bands:  1 eigenvalues not converged
     c_bands:  3 eigenvalues not converged
     c_bands:  2 eigenvalues not converged
     c_bands:  3 eigenvalues not converged
     c_bands:  1 eigenvalues not converged
     c_bands:  4 eigenvalues not converged
     c_bands:  3 eigenvalues not converged
     c_bands:  2 eigenvalues not converged
     ethr =  1.00E-06,  avg # of iterations = 50.1
     Minimization algorithm failed to find Fermi energy: reverting to bisection
     Possible cause: smearing is larger than the electronic band-gap.

[...]

     WARNING: integrated charge=    60.00184664, expected=    60.00000000

[...]

     WARNING: integrated charge=    59.99999345, expected=    60.00000000

[...]

     number of scf cycles    =  17
     number of bfgs steps    =  16

     enthalpy           old  =   -1375.6265825422 Ry
     enthalpy           new  =   -1375.6266117596 Ry

     CASE: enthalpy          _new < enthalpy          _old

     new trust radius        =       0.0067698241 bohr
     new conv_thr            =            1.0E-14 Ry

     new unit-cell volume =   1653.23468 a.u.^3 (   244.98410 Ang^3 )
     density =      2.54795 g/cm^3

[...]

ATOMIC_POSITIONS (crystal)
C             0.0000000000        0.0000000000        0.0000000000    0   0   0
Ta            0.6666666670        0.3333333330       -0.0421008509
Ta            0.3333333330        0.6666666670        0.0392817377
H             0.3333333330        0.6666666670        0.1001132038
H             0.3333333330        0.6666666670       -0.0756904285

     Writing output data file /scratch/as3359/Ta2CH2-VCrelax/Ta.save/
     NEW-OLD atomic charge density approx. for the potential

     negative rho (up, down):  9.835E-05 0.000E+00
     extrapolated charge   59.93362, renormalised to   60.00000

[...]

     iteration #  1     ecut=    70.00 Ry     beta= 0.70
     Davidson diagonalization with overlap
     c_bands:  1 eigenvalues not converged
     c_bands:  1 eigenvalues not converged
     ethr =  1.00E-06,  avg # of iterations = 12.8
     Minimization algorithm failed to find Fermi energy: reverting to bisection
     Possible cause: smearing is larger than the electronic band-gap.

[...]

     Energy error            =      1.4E-05 Ry
     Gradient error          =      8.2E-04 Ry/Bohr
     Cell gradient error     =      4.1E-02 kbar

     bfgs converged in  18 scf cycles and  17 bfgs steps
     (criteria: energy <  1.0E-04 Ry, force <  1.0E-03Ry/Bohr, cell <  5.0E-01kbar)

     End of BFGS Geometry Optimization

     Final enthalpy           =   -1375.6266259267 Ry

     File /scratch/as3359/Ta2CH2-VCrelax/Ta.bfgs deleted, as requested
Begin final coordinates
     new unit-cell volume =   1653.23468 a.u.^3 (   244.98410 Ang^3 )
     density =      2.54795 g/cm^3

CELL_PARAMETERS (alat=  5.55000000)
   1.056726170  -0.000000000   0.000000000
  -0.528363084   0.915151707   0.000000000
   0.000000000   0.000000000  10.000000000

ATOMIC_POSITIONS (crystal)
C             0.0000000000        0.0000000000        0.0000000000    0   0   0
Ta            0.6666666670        0.3333333330       -0.0421008509
Ta            0.3333333330        0.6666666670        0.0392817377
H             0.3333333330        0.6666666670        0.1001132038
H             0.3333333330        0.6666666670       -0.0756904285
End final coordinates

     Writing output data file /scratch/as3359/Ta2CH2-VCrelax/Ta.save/

     Final scf calculation at the relaxed structure.
     The G-vectors are recalculated for the final unit cell
     Results may differ from those at the preceding step.

     Using Slab Decomposition

     bravais-lattice index     =            0
     lattice parameter (alat)  =       5.5500  a.u.
     unit-cell volume          =    1653.2347 (a.u.)^3
     number of atoms/cell      =            5
     number of atomic types    =            3
     number of electrons       =        60.00
     number of Kohn-Sham states=           36
     kinetic-energy cutoff     =      70.0000  Ry
     charge density cutoff     =     700.0000  Ry
     scf convergence threshold =      1.0E-14
     mixing beta               =       0.7000
     number of iterations used =            8  plain     mixing
     press convergence thresh. =      5.0E-01
     Exchange-correlation= PBESOL
                           (   1   4  10   8   0   0   0)

     celldm(1)=   5.550000  celldm(2)=   0.000000  celldm(3)=   0.000000
     celldm(4)=   0.000000  celldm(5)=   0.000000  celldm(6)=   0.000000

     crystal axes: (cart. coord. in units of alat)
               a(1) = (   1.056726  -0.000000   0.000000 )
               a(2) = (  -0.528363   0.915152   0.000000 )
               a(3) = (   0.000000   0.000000  10.000000 )

     reciprocal axes: (cart. coord. in units 2 pi/alat)
               b(1) = (  0.946319  0.546358  0.000000 )
               b(2) = (  0.000000  1.092715  0.000000 )
               b(3) = (  0.000000  0.000000  0.100000 )

     PseudoPot. # 1 for Ta read from file:
     /shared/home/as3359/pseudo/Ta.pbesol-spfn-rrkjus_psl.1.0.0.UPF
     MD5 check sum: f099565ffaca9b150a52e9412a28e20b
     Pseudo is Ultrasoft + core correction, Zval = 27.0
     Generated using &quot;atomic&quot; code by A. Dal Corso  v.6.3
     Using radial grid of 1273 points,  8 beta functions with:
                l(1) =   0
                l(2) =   0
                l(3) =   1
                l(4) =   1
                l(5) =   2
                l(6) =   2
                l(7) =   3
                l(8) =   3
     Q(r) pseudized with 0 coefficients

     PseudoPot. # 2 for C  read from file:
     /shared/home/as3359/pseudo/C.pbesol-n-rrkjus_psl.1.0.0.UPF
     MD5 check sum: 05995be603a8a7c99da3dc4413f31573
     Pseudo is Ultrasoft + core correction, Zval =  4.0
     Generated using &quot;atomic&quot; code by A. Dal Corso  v.6.3MaX
     Using radial grid of 1073 points,  4 beta functions with:
                l(1) =   0
                l(2) =   0
                l(3) =   1
                l(4) =   1
     Q(r) pseudized with 0 coefficients

     PseudoPot. # 3 for H  read from file:
     /shared/home/as3359/pseudo/H.pbesol-rrkjus_psl.0.1.UPF
     MD5 check sum: 1dbb1a5c48b1283557b8117eb856a7ca
     Pseudo is Ultrasoft, Zval =  1.0
     Generated using "atomic" code by A. Dal Corso  v.5.0.2 svn rev. 9415
     Using radial grid of  929 points,  2 beta functions with:
                l(1) =   0
                l(2) =   0
     Q(r) pseudized with 0 coefficients

     atomic species   valence    mass     pseudopotential
        Ta            27.00   180.94788     Ta( 1.00)
        C              4.00    12.01070     C ( 1.00)
        H              1.00     1.00000     H ( 1.00)

      6 Sym. Ops. (no inversion) found

   Cartesian axes

     site n.     atom                  positions (alat units)
         1           C   tau(   1) = (   0.0000000   0.0000000   0.0000000  )
         2           Ta  tau(   2) = (   0.5283631   0.3050506  -0.4210085  )
         3           Ta  tau(   3) = (  -0.0000000   0.6101011   0.3928174  )
         4           H   tau(   4) = (  -0.0000000   0.6101011   1.0011320  )
         5           H   tau(   5) = (  -0.0000000   0.6101011  -0.7569043  )

     number of k points=    19  Marzari-Vanderbilt smearing, width (Ry)=  0.0010
                       cart. coord. in units 2pi/alat
        k(    1) = (   0.0000000   0.0000000   0.0000000), wk =   0.0138889
        k(    2) = (   0.0000000   0.0910596   0.0000000), wk =   0.0833333
        k(    3) = (   0.0000000   0.1821192   0.0000000), wk =   0.0833333
        k(    4) = (   0.0000000   0.2731788   0.0000000), wk =   0.0833333
        k(    5) = (   0.0000000   0.3642383   0.0000000), wk =   0.0833333
        k(    6) = (   0.0000000   0.4552979   0.0000000), wk =   0.0833333
        k(    7) = (  -0.0000000  -0.5463575   0.0000000), wk =   0.0416667
        k(    8) = (   0.0788599   0.1365894   0.0000000), wk =   0.0833333
        k(    9) = (   0.0788599   0.2276490   0.0000000), wk =   0.1666667
        k(   10) = (   0.0788599   0.3187085   0.0000000), wk =   0.1666667
        k(   11) = (   0.0788599   0.4097681   0.0000000), wk =   0.1666667
        k(   12) = (   0.0788599   0.5008277   0.0000000), wk =   0.1666667
        k(   13) = (   0.1577198   0.2731788   0.0000000), wk =   0.0833333
        k(   14) = (   0.1577198   0.3642383   0.0000000), wk =   0.1666667
        k(   15) = (   0.1577198   0.4552979   0.0000000), wk =   0.1666667
        k(   16) = (   0.1577198   0.5463575   0.0000000), wk =   0.0833333
        k(   17) = (   0.2365797   0.4097681   0.0000000), wk =   0.0833333
        k(   18) = (   0.2365797   0.5008277   0.0000000), wk =   0.1666667
        k(   19) = (   0.3154397   0.5463575   0.0000000), wk =   0.0277778

     Initial potential from superposition of free atoms

     starting charge   59.99840, renormalised to   60.00000

     negative rho (up, down):  4.825E-05 0.000E+00
     Starting wfcs are   40 randomized atomic wfcs

     Self-consistent Calculation

     iteration #  1     ecut=    70.00 Ry     beta= 0.70
     Davidson diagonalization with overlap
     c_bands:  1 eigenvalues not converged
     c_bands:  1 eigenvalues not converged
     c_bands:  1 eigenvalues not converged
     c_bands:  1 eigenvalues not converged
     c_bands:  1 eigenvalues not converged
     c_bands:  1 eigenvalues not converged
     c_bands:  2 eigenvalues not converged
     c_bands:  1 eigenvalues not converged
     c_bands:  2 eigenvalues not converged
     c_bands:  2 eigenvalues not converged
     c_bands:  2 eigenvalues not converged
     c_bands:  2 eigenvalues not converged
     c_bands:  2 eigenvalues not converged
     c_bands:  1 eigenvalues not converged
     ethr =  1.00E-06,  avg # of iterations = 19.4

[...]

     iteration #  8     ecut=    70.00 Ry     beta= 0.70
     Davidson diagonalization with overlap
     ethr =  3.75E-05,  avg # of iterations =  6.0
     Minimization algorithm failed to find Fermi energy: reverting to bisection
     Possible cause: smearing is larger than the electronic band-gap.

[...]

     total energy              =   -1375.62686258 Ry
     estimated scf accuracy    <          1.3E-14 Ry

     iteration # 24     ecut=    70.00 Ry     beta= 0.70
     Davidson diagonalization with overlap
     ethr =  1.00E-13,  avg # of iterations =  1.0

[...]

     End of self-consistent calculation

[...]

          k =-0.0000-0.5464 0.0000 ( 16338 PWs)   bands (ev):

[...]

          k = 0.3154 0.5464 0.0000 ( 16386 PWs)   bands (ev):

   -69.0859 -68.4051 -35.7929 -35.7865 -35.7431 -35.1971 -35.1137 -34.8173
   -20.7894 -20.7880 -20.7853 -20.7702 -20.7661 -20.7457 -20.7185 -20.1096
   -20.0863 -20.0844 -20.0769 -20.0416 -20.0406 -20.0168 -12.1209  -6.6779
    -6.5291  -6.1769  -5.0048  -2.0956  -1.4985  -1.4692  -0.1442   1.0985
     1.3815   2.6681   4.2649   4.8984

     the Fermi energy is    -0.5384 ev

!    total energy              =   -1375.62686258 Ry
     estimated scf accuracy    <          6.0E-16 Ry
     smearing contrib. (-TS)   =      -0.00002098 Ry
     internal energy E=F+TS    =   -1375.62684160 Ry

     The total energy is F=E-TS. E is the sum of the following terms:
     one-electron contribution =  -11040.96293857 Ry
     hartree contribution      =    5548.06829580 Ry
     xc contribution           =    -140.20602376 Ry
     ewald contribution        =    4257.47382493 Ry

     convergence has been achieved in  24 iterations

     negative rho (up, down):  7.073E-05 0.000E+00

     Forces acting on atoms (cartesian axes, Ry/au):

     atom    1 type  2   force =     0.00000000    0.00000000   -0.00029859
     atom    2 type  1   force =    -0.00000000   -0.00000000    0.00084053
     atom    3 type  1   force =     0.00000000    0.00000000    0.00003937
     atom    4 type  3   force =     0.00000000    0.00000000   -0.00007265
     atom    5 type  3   force =    -0.00000000   -0.00000000   -0.00050866

     Total force =     0.000986     Total SCF correction =     0.000000

     Computing stress (Cartesian axis) and pressure

     negative rho (up, down):  7.073E-05 0.000E+00
          total   stress  (Ry/bohr**3)                   (kbar)     P=       -0.03
   0.00000192  -0.00000000   0.00000000            0.28       -0.00        0.00
  -0.00000000   0.00000192   0.00000000           -0.00        0.28        0.00
  -0.00000000  -0.00000000  -0.00000452           -0.00       -0.00       -0.67

     Writing output data file /scratch/as3359/Ta2CH2-VCrelax/Ta.save/

     General routines

     Parallel routines

   This run was terminated on:  22:22:56  21Apr2022

   JOB DONE.