     Program PWSCF v.6.8 starts on 21Apr2022 at 22:22:57

     R & G space division:  proc/nbgrp/npool/nimage =       2

     Reading input from Ta2CH2.relax.in
Warning: card  &CELL ignored
Warning: card     CELL_DYNAMICS='BFGS', CELL_DOFREE ='2DXY' ignored
Warning: card  / ignored

     Current dimensions of program PWSCF are:
     Max number of different atomic species (ntypx) = 10
     Max number of k-points (npk) =  40000
     Max angular momentum in pseudopotentials (lmaxx) =  4
     file Ta.pbesol-spfn-rrkjus_psl.1.0.0.UPF: wavefunction(s)  5S 5P renormalized
     Message from routine setup:
     using ibrav=0 with symmetry is DISCOURAGED, use correct ibrav instead

     Subspace diagonalization in iterative solution of the eigenvalue problem:
     a serial algorithm will be used

     Using Slab Decomposition

     bravais-lattice index     =            0
     lattice parameter (alat)  =       5.5500  a.u.
     unit-cell volume          =    1653.2347 (a.u.)^3
     number of atoms/cell      =            5
     number of atomic types    =            3
     number of electrons       =        60.00
     number of Kohn-Sham states=           36
     kinetic-energy cutoff     =      70.0000  Ry
     charge density cutoff     =     700.0000  Ry
     scf convergence threshold =      1.0E-12
     mixing beta               =       0.7000
     number of iterations used =            8  plain     mixing
     energy convergence thresh.=      1.0E-04
     force convergence thresh. =      1.0E-03
     Exchange-correlation= PBESOL
                           (   1   4  10   8   0   0   0)
     nstep                     =           50

     celldm(1)=   5.550000  celldm(2)=   0.000000  celldm(3)=   0.000000
     celldm(4)=   0.000000  celldm(5)=   0.000000  celldm(6)=   0.000000

     crystal axes: (cart. coord. in units of alat)
               a(1) = (   1.056726   0.000000   0.000000 )
               a(2) = (  -0.528363   0.915152   0.000000 )
               a(3) = (   0.000000   0.000000  10.000000 )

     reciprocal axes: (cart. coord. in units 2 pi/alat)
               b(1) = (  0.946319  0.546358  0.000000 )
               b(2) = (  0.000000  1.092715  0.000000 )
               b(3) = (  0.000000  0.000000  0.100000 )

     PseudoPot. # 1 for Ta read from file:
     /shared/home/as3359/pseudo/Ta.pbesol-spfn-rrkjus_psl.1.0.0.UPF
     MD5 check sum: f099565ffaca9b150a52e9412a28e20b
     Pseudo is Ultrasoft + core correction, Zval = 27.0
     Generated using &quot;atomic&quot; code by A. Dal Corso  v.6.3
     Using radial grid of 1273 points,  8 beta functions with:
                l(1) =   0
                l(2) =   0
                l(3) =   1
                l(4) =   1
                l(5) =   2
                l(6) =   2
                l(7) =   3
                l(8) =   3
     Q(r) pseudized with 0 coefficients

     PseudoPot. # 2 for C  read from file:
     /shared/home/as3359/pseudo/C.pbesol-n-rrkjus_psl.1.0.0.UPF
     MD5 check sum: 05995be603a8a7c99da3dc4413f31573
     Pseudo is Ultrasoft + core correction, Zval =  4.0
     Generated using &quot;atomic&quot; code by A. Dal Corso  v.6.3MaX
     Using radial grid of 1073 points,  4 beta functions with:
                l(1) =   0
                l(2) =   0
                l(3) =   1
                l(4) =   1
     Q(r) pseudized with 0 coefficients

     PseudoPot. # 3 for H  read from file:
     /shared/home/as3359/pseudo/H.pbesol-rrkjus_psl.0.1.UPF
     MD5 check sum: 1dbb1a5c48b1283557b8117eb856a7ca
     Pseudo is Ultrasoft, Zval =  1.0
     Generated using "atomic" code by A. Dal Corso  v.5.0.2 svn rev. 9415
     Using radial grid of  929 points,  2 beta functions with:
                l(1) =   0
                l(2) =   0
     Q(r) pseudized with 0 coefficients

     atomic species   valence    mass     pseudopotential
        Ta            27.00   180.94788     Ta( 1.00)
        C              4.00    12.01070     C ( 1.00)
        H              1.00     1.00000     H ( 1.00)

      6 Sym. Ops. (no inversion) found

   Cartesian axes

     site n.     atom                  positions (alat units)
         1           C   tau(   1) = (   0.0000000   0.0000000   0.0000000  )
         2           Ta  tau(   2) = (   0.5283631   0.3050506  -0.4210085  )
         3           Ta  tau(   3) = (   0.0000000   0.6101011   0.3928174  )
         4           H   tau(   4) = (   0.0000000   0.6101011   1.0011320  )
         5           H   tau(   5) = (   0.0000000   0.6101011  -0.7569043  )

     number of k points=    19  Marzari-Vanderbilt smearing, width (Ry)=  0.0010
                       cart. coord. in units 2pi/alat
        k(    1) = (   0.0000000   0.0000000   0.0000000), wk =   0.0138889
        k(    2) = (   0.0000000   0.0910596   0.0000000), wk =   0.0833333
        k(    3) = (   0.0000000   0.1821192   0.0000000), wk =   0.0833333
        k(    4) = (   0.0000000   0.2731788   0.0000000), wk =   0.0833333
        k(    5) = (   0.0000000   0.3642383   0.0000000), wk =   0.0833333
        k(    6) = (   0.0000000   0.4552979   0.0000000), wk =   0.0833333
        k(    7) = (   0.0000000  -0.5463575   0.0000000), wk =   0.0416667
        k(    8) = (   0.0788599   0.1365894   0.0000000), wk =   0.0833333
        k(    9) = (   0.0788599   0.2276490   0.0000000), wk =   0.1666667
        k(   10) = (   0.0788599   0.3187085   0.0000000), wk =   0.1666667
        k(   11) = (   0.0788599   0.4097681   0.0000000), wk =   0.1666667
        k(   12) = (   0.0788599   0.5008277   0.0000000), wk =   0.1666667
        k(   13) = (   0.1577198   0.2731788   0.0000000), wk =   0.0833333
        k(   14) = (   0.1577198   0.3642383   0.0000000), wk =   0.1666667
        k(   15) = (   0.1577198   0.4552979   0.0000000), wk =   0.1666667
        k(   16) = (   0.1577198   0.5463575   0.0000000), wk =   0.0833333
        k(   17) = (   0.2365797   0.4097681   0.0000000), wk =   0.0833333
        k(   18) = (   0.2365797   0.5008277   0.0000000), wk =   0.1666667
        k(   19) = (   0.3154397   0.5463575   0.0000000), wk =   0.0277778

     Initial potential from superposition of free atoms

     starting charge   59.99840, renormalised to   60.00000

     negative rho (up, down):  4.825E-05 0.000E+00
     Starting wfcs are   40 randomized atomic wfcs

     Self-consistent Calculation

     iteration #  1     ecut=    70.00 Ry     beta= 0.70
     Davidson diagonalization with overlap
     ethr =  1.00E-02,  avg # of iterations =  2.2
     Minimization algorithm failed to find Fermi energy: reverting to bisection
     Possible cause: smearing is larger than the electronic band-gap.

     negative rho (up, down):  2.048E-05 0.000E+00

     total energy              =   -1374.92978308 Ry
     estimated scf accuracy    <       1.19232755 Ry

     iteration #  2     ecut=    70.00 Ry     beta= 0.70
     Davidson diagonalization with overlap
     ethr =  1.99E-03,  avg # of iterations =  8.9

[...]

     iteration #  6     ecut=    70.00 Ry     beta= 0.70
     Davidson diagonalization with overlap
     ethr =  3.11E-04,  avg # of iterations =  3.4
     Minimization algorithm failed to find Fermi energy: reverting to bisection
     Possible cause: smearing is larger than the electronic band-gap.

[...]

     total energy              =   -1375.62686291 Ry
     estimated scf accuracy    <          7.2E-12 Ry

     iteration # 20     ecut=    70.00 Ry     beta= 0.70
     Davidson diagonalization with overlap
     ethr =  1.00E-13,  avg # of iterations =  2.0

[...]

     End of self-consistent calculation

          k = 0.0000 0.0000 0.0000 ( 16413 PWs)   bands (ev):

   -69.1288 -68.4466 -35.8964 -35.3387 -35.3387 -34.8721 -34.7643 -34.7643
   -20.8117 -20.7806 -20.7806 -20.7694 -20.7694 -20.7543 -20.7049 -20.1272
   -20.0882 -20.0882 -20.0677 -20.0367 -20.0281 -20.0281 -13.8608  -9.0829
    -5.3763  -5.0785  -5.0784  -3.8789  -1.8283  -1.0554  -1.0554   0.8709
     0.8709   2.2169   2.2169   2.3423

[...]

          k = 0.3154 0.5464 0.0000 ( 16386 PWs)   bands (ev):

   -69.0859 -68.4051 -35.7929 -35.7865 -35.7431 -35.1971 -35.1137 -34.8173
   -20.7894 -20.7880 -20.7853 -20.7702 -20.7661 -20.7457 -20.7185 -20.1096
   -20.0863 -20.0844 -20.0769 -20.0416 -20.0406 -20.0168 -12.1209  -6.6779
    -6.5291  -6.1769  -5.0048  -2.0956  -1.4985  -1.4692  -0.1442   1.0985
     1.3815   2.6681   4.2649   4.8984

     the Fermi energy is    -0.5384 ev

!    total energy              =   -1375.62686291 Ry
     estimated scf accuracy    <          2.0E-13 Ry
     smearing contrib. (-TS)   =      -0.00002098 Ry
     internal energy E=F+TS    =   -1375.62684193 Ry

     The total energy is F=E-TS. E is the sum of the following terms:
     one-electron contribution =  -11040.96289168 Ry
     hartree contribution      =    5548.06826930 Ry
     xc contribution           =    -140.20602401 Ry
     ewald contribution        =    4257.47380446 Ry

     convergence has been achieved in  20 iterations

     negative rho (up, down):  7.073E-05 0.000E+00

     Forces acting on atoms (cartesian axes, Ry/au):

     atom    1 type  2   force =     0.00000000    0.00000000   -0.00029847
     atom    2 type  1   force =     0.00000000   -0.00000000    0.00084001
     atom    3 type  1   force =     0.00000000    0.00000000    0.00003943
     atom    4 type  3   force =     0.00000000    0.00000000   -0.00007242
     atom    5 type  3   force =     0.00000000    0.00000000   -0.00050855

     Total force =     0.001030     Total SCF correction =     0.000001

     Computing stress (Cartesian axis) and pressure

     negative rho (up, down):  7.073E-05 0.000E+00
          total   stress  (Ry/bohr**3)                   (kbar)     P=       -0.03
   0.00000192  -0.00000000   0.00000000            0.28       -0.00        0.00
  -0.00000000   0.00000192   0.00000000           -0.00        0.28        0.00
  -0.00000000  -0.00000000  -0.00000452           -0.00       -0.00       -0.67

     BFGS Geometry Optimization
     Energy error            =      0.0E+00 Ry
     Gradient error          =      8.4E-04 Ry/Bohr

     bfgs converged in   1 scf cycles and   0 bfgs steps
     (criteria: energy <  1.0E-04 Ry, force <  1.0E-03 Ry/Bohr)

     End of BFGS Geometry Optimization

     Final energy             =   -1375.6268629117 Ry
Begin final coordinates

ATOMIC_POSITIONS (alat)
C             0.0000000000        0.0000000000        0.0000000000
Ta            0.5283631000        0.3050506000       -0.4210085000
Ta           -0.0000000000        0.6101011000        0.3928174000
H            -0.0000000000        0.6101011000        1.0011320000
H            -0.0000000000        0.6101011000       -0.7569043000
End final coordinates

     Writing output data file /scratch/as3359/Ta2CH2-VCrelax/Ta.save/

     General routines

     Parallel routines

   This run was terminated on:  22:25:38  21Apr2022

   JOB DONE.