     Program PWSCF v.6.8 starts on  9Apr2022 at 19:15:27

     R & G space division:  proc/nbgrp/npool/nimage =       2

     Waiting for input...
     Reading input from standard input

     Current dimensions of program PWSCF are:
     Max number of different atomic species (ntypx) = 10
     Max number of k-points (npk) =  40000
     Max angular momentum in pseudopotentials (lmaxx) =  4
     file Mo.pbesol-spn-kjpaw_psl.1.0.0.UPF: wavefunction(s)  4S 4D renormalized
     file S.pbesol-nl-kjpaw_psl.1.0.0.UPF: wavefunction(s)  3S renormalized

     Subspace diagonalization in iterative solution of the eigenvalue problem:
     a serial algorithm will be used

     Using Slab Decomposition

     bravais-lattice index     =            0
     lattice parameter (alat)  =       6.0720  a.u.
     unit-cell volume          =    1481.3262 (a.u.)^3
     number of atoms/cell      =            6
     number of atomic types    =            2
     number of electrons       =        52.00
     number of Kohn-Sham states=           26
     kinetic-energy cutoff     =      60.0000  Ry
     charge density cutoff     =     300.0000  Ry
     scf convergence threshold =      1.0E-12
     mixing beta               =       0.7000
     number of iterations used =            8  plain     mixing
     Exchange-correlation= SLA  PW   PSX  PSC
                           (   1   4  10   8   0   0   0)

     celldm(1)=   6.072000  celldm(2)=   0.000000  celldm(3)=   0.000000
     celldm(4)=   0.000000  celldm(5)=   0.000000  celldm(6)=   0.000000

     crystal axes: (cart. coord. in units of alat)
               a(1) = (   0.977224  -0.000137   0.000000 )
               a(2) = (  -0.488455   0.846460   0.000000 )
               a(3) = (   0.000000   0.000000   8.000000 )

     reciprocal axes: (cart. coord. in units 2 pi/alat)
               b(1) = (  1.023389  0.590553  0.000000 )
               b(2) = (  0.000165  1.181486  0.000000 )
               b(3) = (  0.000000  0.000000  0.125000 )

     PseudoPot. # 1 for Mo read from file:
     /shared/home/as3359/pseudo/Mo.pbesol-spn-kjpaw_psl.1.0.0.UPF
     MD5 check sum: de57925cfc675213e43241dcc441eda8
     Pseudo is Projector augmented-wave + core cor, Zval = 14.0
     Generated using &quot;atomic&quot; code by A. Dal Corso  v.6.3
     Shape of augmentation charge: PSQ
     Using radial grid of 1229 points,  6 beta functions with:
                l(1) =   0
                l(2) =   0
                l(3) =   1
                l(4) =   1
                l(5) =   2
                l(6) =   2
     Q(r) pseudized with 0 coefficients

     PseudoPot. # 2 for S  read from file:
     /shared/home/as3359/pseudo/S.pbesol-nl-kjpaw_psl.1.0.0.UPF
     MD5 check sum: bf3db50ec3f960682bbc396f1aadd1dd
     Pseudo is Projector augmented-wave + core cor, Zval =  6.0
     Generated using &quot;atomic&quot; code by A. Dal Corso  v.6.3
     Shape of augmentation charge: PSQ
     Using radial grid of 1151 points,  4 beta functions with:
                l(1) =   0
                l(2) =   0
                l(3) =   1
                l(4) =   1
     Q(r) pseudized with 0 coefficients

     atomic species   valence    mass     pseudopotential
        Mo            14.00    95.94000     Mo( 1.00)
        S              6.00    32.06500     S ( 1.00)

     No symmetry found

   Cartesian axes

     site n.     atom                  positions (alat units)
         1           Mo  tau(   1) = (   0.0000000   0.0000000   0.6672908  )
         2           S   tau(   2) = (   0.4887329   0.2818863   1.1527938  )
         3           S   tau(   3) = (   0.4886683   0.2820494   0.1818588  )
         4           Mo  tau(   4) = (   0.0000000   0.0000000   2.6927140  )
         5           S   tau(   5) = (  -0.4886682  -0.2820493   3.1781390  )
         6           S   tau(   6) = (  -0.4887328  -0.2818862   2.2072035  )

     number of k points=    74
                       cart. coord. in units 2pi/alat
        k(    1) = (   0.0000000   0.0000000   0.0000000), wk =   0.0138889
        k(    2) = (   0.0000138   0.0984572   0.0000000), wk =   0.0277778
        k(    3) = (   0.0000276   0.1969144   0.0000000), wk =   0.0277778
        k(    4) = (   0.0000413   0.2953716   0.0000000), wk =   0.0277778
        k(    5) = (   0.0000551   0.3938288   0.0000000), wk =   0.0277778
        k(    6) = (   0.0000689   0.4922860   0.0000000), wk =   0.0277778
        k(    7) = (  -0.0000827  -0.5907431   0.0000000), wk =   0.0138889
        k(    8) = (   0.0852825   0.0492127   0.0000000), wk =   0.0277778
        k(    9) = (   0.0852962   0.1476699   0.0000000), wk =   0.0277778
        k(   10) = (   0.0853100   0.2461271   0.0000000), wk =   0.0277778
        k(   11) = (   0.0853238   0.3445843   0.0000000), wk =   0.0277778
        k(   12) = (   0.0853376   0.4430415   0.0000000), wk =   0.0277778
        k(   13) = (   0.0853513   0.5414987   0.0000000), wk =   0.0277778
        k(   14) = (   0.0851998  -0.5415304   0.0000000), wk =   0.0277778
        k(   15) = (   0.0852136  -0.4430732   0.0000000), wk =   0.0277778
        k(   16) = (   0.0852273  -0.3446160   0.0000000), wk =   0.0277778
        k(   17) = (   0.0852411  -0.2461588   0.0000000), wk =   0.0277778
        k(   18) = (   0.0852549  -0.1477017   0.0000000), wk =   0.0277778
        k(   19) = (   0.0852687  -0.0492445   0.0000000), wk =   0.0277778
        k(   20) = (   0.1705649   0.0984255   0.0000000), wk =   0.0277778
        k(   21) = (   0.1705787   0.1968827   0.0000000), wk =   0.0277778
        k(   22) = (   0.1705925   0.2953398   0.0000000), wk =   0.0277778
        k(   23) = (   0.1706062   0.3937970   0.0000000), wk =   0.0277778
        k(   24) = (   0.1706200   0.4922542   0.0000000), wk =   0.0277778
        k(   25) = (   0.1706338   0.5907114   0.0000000), wk =   0.0277778
        k(   26) = (   0.1704823  -0.4923177   0.0000000), wk =   0.0277778
        k(   27) = (   0.1704960  -0.3938605   0.0000000), wk =   0.0277778
        k(   28) = (   0.1705098  -0.2954033   0.0000000), wk =   0.0277778
        k(   29) = (   0.1705236  -0.1969461   0.0000000), wk =   0.0277778
        k(   30) = (   0.1705374  -0.0984889   0.0000000), wk =   0.0277778
        k(   31) = (   0.1705511  -0.0000317   0.0000000), wk =   0.0277778
        k(   32) = (   0.2558474   0.1476382   0.0000000), wk =   0.0277778
        k(   33) = (   0.2558612   0.2460954   0.0000000), wk =   0.0277778
        k(   34) = (   0.2558749   0.3445526   0.0000000), wk =   0.0277778
        k(   35) = (   0.2558887   0.4430098   0.0000000), wk =   0.0277778
        k(   36) = (   0.2559025   0.5414670   0.0000000), wk =   0.0277778
        k(   37) = (   0.2559163   0.6399241   0.0000000), wk =   0.0277778
        k(   38) = (   0.2557647  -0.4431050   0.0000000), wk =   0.0277778
        k(   39) = (   0.2557785  -0.3446478   0.0000000), wk =   0.0277778
        k(   40) = (   0.2557923  -0.2461906   0.0000000), wk =   0.0277778
        k(   41) = (   0.2558060  -0.1477334   0.0000000), wk =   0.0277778
        k(   42) = (   0.2558198  -0.0492762   0.0000000), wk =   0.0277778
        k(   43) = (   0.2558336   0.0491810   0.0000000), wk =   0.0277778
        k(   44) = (   0.3411298   0.1968509   0.0000000), wk =   0.0277778
        k(   45) = (   0.3411436   0.2953081   0.0000000), wk =   0.0277778
        k(   46) = (   0.3411574   0.3937653   0.0000000), wk =   0.0277778
        k(   47) = (   0.3411712   0.4922225   0.0000000), wk =   0.0277778
        k(   48) = (   0.3411849   0.5906797   0.0000000), wk =   0.0277778
        k(   49) = (   0.3411987   0.6891369   0.0000000), wk =   0.0277778
        k(   50) = (   0.3410472  -0.3938922   0.0000000), wk =   0.0277778
        k(   51) = (   0.3410609  -0.2954350   0.0000000), wk =   0.0277778
        k(   52) = (   0.3410747  -0.1969778   0.0000000), wk =   0.0277778
        k(   53) = (   0.3410885  -0.0985206   0.0000000), wk =   0.0277778
        k(   54) = (   0.3411023  -0.0000635   0.0000000), wk =   0.0277778
        k(   55) = (   0.3411161   0.0983937   0.0000000), wk =   0.0277778
        k(   56) = (   0.4264123   0.2460637   0.0000000), wk =   0.0277778
        k(   57) = (   0.4264261   0.3445208   0.0000000), wk =   0.0277778
        k(   58) = (   0.4264398   0.4429780   0.0000000), wk =   0.0277778
        k(   59) = (   0.4264536   0.5414352   0.0000000), wk =   0.0277778
        k(   60) = (   0.4264674   0.6398924   0.0000000), wk =   0.0277778
        k(   61) = (   0.4264812   0.7383496   0.0000000), wk =   0.0277778
        k(   62) = (   0.4263296  -0.3446795   0.0000000), wk =   0.0277778
        k(   63) = (   0.4263434  -0.2462223   0.0000000), wk =   0.0277778
        k(   64) = (   0.4263572  -0.1477651   0.0000000), wk =   0.0277778
        k(   65) = (   0.4263710  -0.0493079   0.0000000), wk =   0.0277778
        k(   66) = (   0.4263847   0.0491493   0.0000000), wk =   0.0277778
        k(   67) = (   0.4263985   0.1476065   0.0000000), wk =   0.0277778
        k(   68) = (  -0.5116947  -0.2952764   0.0000000), wk =   0.0138889
        k(   69) = (  -0.5116810  -0.1968192   0.0000000), wk =   0.0277778
        k(   70) = (  -0.5116672  -0.0983620   0.0000000), wk =   0.0277778
        k(   71) = (  -0.5116534   0.0000952   0.0000000), wk =   0.0277778
        k(   72) = (  -0.5116396   0.0985524   0.0000000), wk =   0.0277778
        k(   73) = (  -0.5116259   0.1970096   0.0000000), wk =   0.0277778
        k(   74) = (  -0.5117774  -0.8860195   0.0000000), wk =   0.0138889

     Initial potential from superposition of free atoms

     starting charge   51.99828, renormalised to   52.00000

     negative rho (up, down):  2.740E-04 0.000E+00
     Starting wfcs are   36 randomized atomic wfcs
     Checking if some PAW data can be deallocated...

     Self-consistent Calculation

     iteration #  1     ecut=    60.00 Ry     beta= 0.70
     Davidson diagonalization with overlap
     ethr =  1.00E-02,  avg # of iterations =  2.0

     Threshold (ethr) on eigenvalues was too large:
     Diagonalizing with lowered threshold

     Davidson diagonalization with overlap
     ethr =  3.35E-04,  avg # of iterations =  3.9

     negative rho (up, down):  3.288E-04 0.000E+00

     total energy              =    -979.39055139 Ry
     estimated scf accuracy    <       0.27643448 Ry

[...]

     total energy              =    -979.51269189 Ry
     estimated scf accuracy    <          3.9E-12 Ry

     iteration # 28     ecut=    60.00 Ry     beta= 0.70
     Davidson diagonalization with overlap
     ethr =  1.00E-13,  avg # of iterations =  1.0

[...]

     End of self-consistent calculation

          k = 0.0000 0.0000 0.0000 ( 11729 PWs)   bands (ev):

   -58.7809 -58.7808 -32.9901 -32.9901 -32.7235 -32.7235 -32.7234 -32.7234
   -12.3251 -12.2575 -10.9948 -10.8799  -4.0261  -3.7039  -0.6735  -0.6714
    -0.6699  -0.6678  -0.3355   0.4548   0.4862   0.4884   0.4887   0.4910
     1.6759   2.1973

[...]

          k =-0.0001-0.5907 0.0000 ( 11612 PWs)   bands (ev):

[...]

          k = 0.4264 0.1476 0.0000 ( 11620 PWs)   bands (ev):

[...]

          k =-0.5118-0.8860 0.0000 ( 11612 PWs)   bands (ev):

   -58.7352 -58.7352 -33.1561 -33.1561 -32.9011 -32.9011 -32.8233 -32.8232
   -10.2729 -10.2499 -10.1412 -10.1124  -4.0391  -4.0095  -3.0884  -2.9596
    -2.2466  -2.2303  -1.2652  -1.2481  -0.2027   0.1696   1.0364   1.0829
     1.2078   1.3478

     highest occupied level (ev):     2.1973

!    total energy              =    -979.51269189 Ry

     total all-electron energy =    -19376.428382 Ry
     estimated scf accuracy    <          3.3E-13 Ry

     The total energy is the sum of the following terms:
     one-electron contribution =   -2754.30548710 Ry
     hartree contribution      =    1387.78602473 Ry
     xc contribution           =     -59.05436104 Ry
     ewald contribution        =    1071.84361532 Ry
     one-center paw contrib.   =    -625.78248379 Ry

     convergence has been achieved in  28 iterations

     negative rho (up, down):  3.637E-04 0.000E+00

     Forces acting on atoms (cartesian axes, Ry/au):

     atom    1 type  1   force =     0.00010762   -0.00027682    0.00004262
     atom    2 type  2   force =    -0.00009269    0.00023655   -0.00014282
     atom    3 type  2   force =    -0.00001508    0.00004079    0.00002363
     atom    4 type  1   force =    -0.00010745    0.00027723   -0.00006463
     atom    5 type  2   force =     0.00001501   -0.00004100   -0.00001272
     atom    6 type  2   force =     0.00009260   -0.00023676    0.00015394

     Total force =     0.000600     Total SCF correction =     0.000004

     Computing stress (Cartesian axis) and pressure

     negative rho (up, down):  3.637E-04 0.000E+00
          total   stress  (Ry/bohr**3)                   (kbar)     P=       -0.58
  -0.00000039  -0.00000022  -0.00000031           -0.06       -0.03       -0.05
  -0.00000022  -0.00000147   0.00000078           -0.03       -0.22        0.11
  -0.00000031   0.00000078  -0.00000994           -0.05        0.11       -1.46

     Writing output data file /scratch/as3359/MoS2_loop/Ta.save/

     General routines

     Parallel routines

   This run was terminated on:  19:19:45   9Apr2022

   JOB DONE.