     Program PWSCF v.6.8 starts on  9Apr2022 at 16:47:36

     R & G space division:  proc/nbgrp/npool/nimage =       2

     Reading input from MoS2.vcrelax.in

     Current dimensions of program PWSCF are:
     Max number of different atomic species (ntypx) = 10
     Max number of k-points (npk) =  40000
     Max angular momentum in pseudopotentials (lmaxx) =  4
     file Mo.pbesol-spn-kjpaw_psl.1.0.0.UPF: wavefunction(s)  4S 4D renormalized
     file S.pbesol-nl-kjpaw_psl.1.0.0.UPF: wavefunction(s)  3S renormalized

     Subspace diagonalization in iterative solution of the eigenvalue problem:
     a serial algorithm will be used

     Using Slab Decomposition

     bravais-lattice index     =            0
     lattice parameter (alat)  =       6.0720  a.u.
     unit-cell volume          =    1479.6792 (a.u.)^3
     number of atoms/cell      =            6
     number of atomic types    =            2
     number of electrons       =        52.00
     number of Kohn-Sham states=           26
     kinetic-energy cutoff     =      60.0000  Ry
     charge density cutoff     =     300.0000  Ry
     scf convergence threshold =      1.0E-12
     mixing beta               =       0.3000
     number of iterations used =            8  plain     mixing
     energy convergence thresh.=      1.0E-04
     force convergence thresh. =      1.0E-03
     press convergence thresh. =      5.0E-01
     Exchange-correlation= SLA  PW   PSX  PSC
                           (   1   4  10   8   0   0   0)
     nstep                     =           50

     celldm(1)=   6.072000  celldm(2)=   0.000000  celldm(3)=   0.000000
     celldm(4)=   0.000000  celldm(5)=   0.000000  celldm(6)=   0.000000

     crystal axes: (cart. coord. in units of alat)
               a(1) = (   0.976384  -0.000017   0.000000 )
               a(2) = (  -0.487931   0.846187   0.000000 )
               a(3) = (   0.000000   0.000000   8.000000 )

     reciprocal axes: (cart. coord. in units 2 pi/alat)
               b(1) = (  1.024198  0.590577  0.000000 )
               b(2) = (  0.000021  1.181785  0.000000 )
               b(3) = (  0.000000  0.000000  0.125000 )

     PseudoPot. # 1 for Mo read from file:
     /shared/home/as3359/pseudo/Mo.pbesol-spn-kjpaw_psl.1.0.0.UPF
     MD5 check sum: de57925cfc675213e43241dcc441eda8
     Pseudo is Projector augmented-wave + core cor, Zval = 14.0
     Generated using &quot;atomic&quot; code by A. Dal Corso  v.6.3
     Shape of augmentation charge: PSQ
     Using radial grid of 1229 points,  6 beta functions with:
                l(1) =   0
                l(2) =   0
                l(3) =   1
                l(4) =   1
                l(5) =   2
                l(6) =   2
     Q(r) pseudized with 0 coefficients

     PseudoPot. # 2 for S  read from file:
     /shared/home/as3359/pseudo/S.pbesol-nl-kjpaw_psl.1.0.0.UPF
     MD5 check sum: bf3db50ec3f960682bbc396f1aadd1dd
     Pseudo is Projector augmented-wave + core cor, Zval =  6.0
     Generated using &quot;atomic&quot; code by A. Dal Corso  v.6.3
     Shape of augmentation charge: PSQ
     Using radial grid of 1151 points,  4 beta functions with:
                l(1) =   0
                l(2) =   0
                l(3) =   1
                l(4) =   1
     Q(r) pseudized with 0 coefficients

     atomic species   valence    mass     pseudopotential
        Mo            14.00    95.94000     Mo( 1.00)
        S              6.00    32.06500     S ( 1.00)

     No symmetry found

   Cartesian axes

     site n.     atom                  positions (alat units)
         1           Mo  tau(   1) = (   0.0000000   0.0000000   0.9844997  )
         2           S   tau(   2) = (   0.4882867   0.2820177   1.4701535  )
         3           S   tau(   3) = (   0.4882882   0.2820111   0.4988906  )
         4           Mo  tau(   4) = (   0.0000000   0.0000000   2.3755003  )
         5           S   tau(   5) = (  -0.4882882  -0.2820111   2.8611094  )
         6           S   tau(   6) = (  -0.4882867  -0.2820177   1.8898465  )

     number of k points=    74
                       cart. coord. in units 2pi/alat
        k(    1) = (   0.0000000   0.0000000   0.0000000), wk =   0.0138889
        k(    2) = (   0.0000017   0.0984820   0.0000000), wk =   0.0277778
        k(    3) = (   0.0000035   0.1969641   0.0000000), wk =   0.0277778
        k(    4) = (   0.0000052   0.2954461   0.0000000), wk =   0.0277778
        k(    5) = (   0.0000070   0.3939282   0.0000000), wk =   0.0277778
        k(    6) = (   0.0000087   0.4924102   0.0000000), wk =   0.0277778
        k(    7) = (  -0.0000105  -0.5908923   0.0000000), wk =   0.0138889
        k(    8) = (   0.0853498   0.0492147   0.0000000), wk =   0.0277778
        k(    9) = (   0.0853516   0.1476968   0.0000000), wk =   0.0277778
        k(   10) = (   0.0853533   0.2461788   0.0000000), wk =   0.0277778
        k(   11) = (   0.0853550   0.3446609   0.0000000), wk =   0.0277778
        k(   12) = (   0.0853568   0.4431429   0.0000000), wk =   0.0277778
        k(   13) = (   0.0853585   0.5416249   0.0000000), wk =   0.0277778
        k(   14) = (   0.0853394  -0.5416775   0.0000000), wk =   0.0277778
        k(   15) = (   0.0853411  -0.4431955   0.0000000), wk =   0.0277778
        k(   16) = (   0.0853428  -0.3447135   0.0000000), wk =   0.0277778
        k(   17) = (   0.0853446  -0.2462314   0.0000000), wk =   0.0277778
        k(   18) = (   0.0853463  -0.1477494   0.0000000), wk =   0.0277778
        k(   19) = (   0.0853481  -0.0492673   0.0000000), wk =   0.0277778
        k(   20) = (   0.1706996   0.0984294   0.0000000), wk =   0.0277778
        k(   21) = (   0.1707014   0.1969115   0.0000000), wk =   0.0277778
        k(   22) = (   0.1707031   0.2953935   0.0000000), wk =   0.0277778
        k(   23) = (   0.1707049   0.3938756   0.0000000), wk =   0.0277778
        k(   24) = (   0.1707066   0.4923576   0.0000000), wk =   0.0277778
        k(   25) = (   0.1707083   0.5908397   0.0000000), wk =   0.0277778
        k(   26) = (   0.1706892  -0.4924628   0.0000000), wk =   0.0277778
        k(   27) = (   0.1706909  -0.3939808   0.0000000), wk =   0.0277778
        k(   28) = (   0.1706927  -0.2954987   0.0000000), wk =   0.0277778
        k(   29) = (   0.1706944  -0.1970167   0.0000000), wk =   0.0277778
        k(   30) = (   0.1706961  -0.0985346   0.0000000), wk =   0.0277778
        k(   31) = (   0.1706979  -0.0000526   0.0000000), wk =   0.0277778
        k(   32) = (   0.2560494   0.1476442   0.0000000), wk =   0.0277778
        k(   33) = (   0.2560512   0.2461262   0.0000000), wk =   0.0277778
        k(   34) = (   0.2560529   0.3446082   0.0000000), wk =   0.0277778
        k(   35) = (   0.2560547   0.4430903   0.0000000), wk =   0.0277778
        k(   36) = (   0.2560564   0.5415723   0.0000000), wk =   0.0277778
        k(   37) = (   0.2560582   0.6400544   0.0000000), wk =   0.0277778
        k(   38) = (   0.2560390  -0.4432481   0.0000000), wk =   0.0277778
        k(   39) = (   0.2560407  -0.3447661   0.0000000), wk =   0.0277778
        k(   40) = (   0.2560425  -0.2462840   0.0000000), wk =   0.0277778
        k(   41) = (   0.2560442  -0.1478020   0.0000000), wk =   0.0277778
        k(   42) = (   0.2560460  -0.0493199   0.0000000), wk =   0.0277778
        k(   43) = (   0.2560477   0.0491621   0.0000000), wk =   0.0277778
        k(   44) = (   0.3413993   0.1968589   0.0000000), wk =   0.0277778
        k(   45) = (   0.3414010   0.2953409   0.0000000), wk =   0.0277778
        k(   46) = (   0.3414027   0.3938230   0.0000000), wk =   0.0277778
        k(   47) = (   0.3414045   0.4923050   0.0000000), wk =   0.0277778
        k(   48) = (   0.3414062   0.5907871   0.0000000), wk =   0.0277778
        k(   49) = (   0.3414080   0.6892691   0.0000000), wk =   0.0277778
        k(   50) = (   0.3413888  -0.3940334   0.0000000), wk =   0.0277778
        k(   51) = (   0.3413905  -0.2955513   0.0000000), wk =   0.0277778
        k(   52) = (   0.3413923  -0.1970693   0.0000000), wk =   0.0277778
        k(   53) = (   0.3413940  -0.0985872   0.0000000), wk =   0.0277778
        k(   54) = (   0.3413958  -0.0001052   0.0000000), wk =   0.0277778
        k(   55) = (   0.3413975   0.0983768   0.0000000), wk =   0.0277778
        k(   56) = (   0.4267491   0.2460736   0.0000000), wk =   0.0277778
        k(   57) = (   0.4267508   0.3445556   0.0000000), wk =   0.0277778
        k(   58) = (   0.4267526   0.4430377   0.0000000), wk =   0.0277778
        k(   59) = (   0.4267543   0.5415197   0.0000000), wk =   0.0277778
        k(   60) = (   0.4267560   0.6400018   0.0000000), wk =   0.0277778
        k(   61) = (   0.4267578   0.7384838   0.0000000), wk =   0.0277778
        k(   62) = (   0.4267386  -0.3448187   0.0000000), wk =   0.0277778
        k(   63) = (   0.4267404  -0.2463366   0.0000000), wk =   0.0277778
        k(   64) = (   0.4267421  -0.1478546   0.0000000), wk =   0.0277778
        k(   65) = (   0.4267438  -0.0493725   0.0000000), wk =   0.0277778
        k(   66) = (   0.4267456   0.0491095   0.0000000), wk =   0.0277778
        k(   67) = (   0.4267473   0.1475916   0.0000000), wk =   0.0277778
        k(   68) = (  -0.5120989  -0.2952883   0.0000000), wk =   0.0138889
        k(   69) = (  -0.5120971  -0.1968063   0.0000000), wk =   0.0277778
        k(   70) = (  -0.5120954  -0.0983242   0.0000000), wk =   0.0277778
        k(   71) = (  -0.5120937   0.0001578   0.0000000), wk =   0.0277778
        k(   72) = (  -0.5120919   0.0986398   0.0000000), wk =   0.0277778
        k(   73) = (  -0.5120902   0.1971219   0.0000000), wk =   0.0277778
        k(   74) = (  -0.5121093  -0.8861806   0.0000000), wk =   0.0138889

     Initial potential from superposition of free atoms

     starting charge   51.99828, renormalised to   52.00000

     negative rho (up, down):  3.586E-04 0.000E+00
     Starting wfcs are   36 randomized atomic wfcs
     Checking if some PAW data can be deallocated...

     Self-consistent Calculation

     iteration #  1     ecut=    60.00 Ry     beta= 0.30
     Davidson diagonalization with overlap
     ethr =  1.00E-02,  avg # of iterations =  2.5

     Threshold (ethr) on eigenvalues was too large:
     Diagonalizing with lowered threshold

     Davidson diagonalization with overlap
     ethr =  6.31E-04,  avg # of iterations =  3.9

     negative rho (up, down):  3.737E-04 0.000E+00

     total energy              =    -979.25523026 Ry
     estimated scf accuracy    <       0.31090476 Ry

[...]

     iteration # 17     ecut=    60.00 Ry     beta= 0.30
     Davidson diagonalization with overlap
     c_bands:  1 eigenvalues not converged
     ethr =  3.31E-09,  avg # of iterations =  6.0

[...]

     End of self-consistent calculation

          k = 0.0000 0.0000 0.0000 ( 11709 PWs)   bands (ev):

   -58.6061 -58.6061 -32.8419 -32.8335 -32.5725 -32.5723 -32.5717 -32.5715
   -16.0962 -11.9124 -11.5473  -9.7037  -4.8180  -2.6856  -1.8193  -1.8128
    -0.6496  -0.6406  -0.3271   0.1437   0.1489   0.2229   0.2255   1.3366
     1.8506   2.4727

[...]

          k =-0.0000-0.5909 0.0000 ( 11612 PWs)   bands (ev):

[...]

[...]

     negative rho (up, down):  4.783E-04 0.000E+00
          total   stress  (Ry/bohr**3)                   (kbar)     P=       55.26
   0.00024834  -0.00000001   0.00000030           36.53       -0.00        0.04
  -0.00000001   0.00024845  -0.00000088           -0.00       36.55       -0.13
   0.00000030  -0.00000088   0.00063018            0.04       -0.13       92.70

     BFGS Geometry Optimization
     Energy error            =      0.0E+00 Ry
     Gradient error          =      2.0E-01 Ry/Bohr
     Cell gradient error     =      3.7E+01 kbar

     number of scf cycles    =   1
     number of bfgs steps    =   0

     enthalpy           new  =    -979.3182916566 Ry

     new trust radius        =       0.2031461068 bohr
     new conv_thr            =            1.0E-12 Ry

     new unit-cell volume =   1498.11352 a.u.^3 (   221.99752 Ang^3 )
     density =      2.39464 g/cm^3

CELL_PARAMETERS (alat=  6.07200000)
   0.982445693  -0.000017717   0.000000000
  -0.490960761   0.851442672   0.000000000
   0.000000000   0.000000000   8.000000000

ATOMIC_POSITIONS (crystal)
Mo            0.0000000000        0.0000000000        0.1221940248    0   0   1
S             0.6666313454        0.3331380410        0.1795874788
S             0.6666605874        0.3333267582        0.0622561787
Mo            0.0000000000        0.0000000000        0.2978054309    0   0   1
S            -0.6666605948       -0.3333267299        0.3577440913
S            -0.6666313737       -0.3331380308        0.2404127955

     Writing output data file /scratch/as3359/MoS2_loop/Ta.save/
     NEW-OLD atomic charge density approx. for the potential

     negative rho (up, down):  3.937E-04 0.000E+00
     extrapolated charge   52.63984, renormalised to   52.00000

[...]

     Energy error            =      6.7E-02 Ry
     Gradient error          =      8.2E-02 Ry/Bohr
     Cell gradient error     =      3.2E+01 kbar

[...]

     enthalpy           old  =    -979.3182916566 Ry
     enthalpy           new  =    -979.3849436165 Ry

     CASE: enthalpy          _new < enthalpy          _old

[...]

     iteration #  2     ecut=    60.00 Ry     beta= 0.30
     Davidson diagonalization with overlap
     c_bands:  1 eigenvalues not converged
     c_bands:  1 eigenvalues not converged
     ethr =  1.00E-02,  avg # of iterations = 16.4

[...]

     number of scf cycles    =  16
     number of bfgs steps    =  15

     enthalpy           old  =    -979.5125271446 Ry
     enthalpy           new  =    -979.5126566572 Ry

     CASE: enthalpy          _new < enthalpy          _old

     new trust radius        =       0.0500538518 bohr
     new conv_thr            =            1.0E-14 Ry

     new unit-cell volume =   1481.32619 a.u.^3 (   219.50989 Ang^3 )
     density =      2.42178 g/cm^3

[...]

ATOMIC_POSITIONS (crystal)
Mo            0.0000000000        0.0000000000        0.0834113487    0   0   1
S             0.6666328176        0.3331255464        0.1440992311
S             0.6666630376        0.3333182685        0.0227323538
Mo            0.0000000000        0.0000000000        0.3365892540    0   0   1
S            -0.6666629333       -0.3333181858        0.3972673785
S            -0.6666326765       -0.3331254685        0.2759004339

     Writing output data file /scratch/as3359/MoS2_loop/Ta.save/
     NEW-OLD atomic charge density approx. for the potential

     negative rho (up, down):  3.457E-04 0.000E+00
     extrapolated charge   51.97586, renormalised to   52.00000

[...]

     Energy error            =      1.7E-05 Ry
     Gradient error          =      2.4E-04 Ry/Bohr
     Cell gradient error     =      2.2E-01 kbar

     bfgs converged in  17 scf cycles and  16 bfgs steps
     (criteria: energy <  1.0E-04 Ry, force <  1.0E-03Ry/Bohr, cell <  5.0E-01kbar)

     End of BFGS Geometry Optimization

     Final enthalpy           =    -979.5126741247 Ry

     File /scratch/as3359/MoS2_loop/Ta.bfgs deleted, as requested
Begin final coordinates
     new unit-cell volume =   1481.32619 a.u.^3 (   219.50989 Ang^3 )
     density =      2.42178 g/cm^3

CELL_PARAMETERS (alat=  6.07200000)
   0.977223979  -0.000136745   0.000000000
  -0.488454528   0.846459886   0.000000000
   0.000000000   0.000000000   8.000000000

ATOMIC_POSITIONS (crystal)
Mo            0.0000000000        0.0000000000        0.0834113487    0   0   1
S             0.6666328176        0.3331255464        0.1440992311
S             0.6666630376        0.3333182685        0.0227323538
Mo            0.0000000000        0.0000000000        0.3365892540    0   0   1
S            -0.6666629333       -0.3333181858        0.3972673785
S            -0.6666326765       -0.3331254685        0.2759004339
End final coordinates

     Writing output data file /scratch/as3359/MoS2_loop/Ta.save/

     Final scf calculation at the relaxed structure.
     The G-vectors are recalculated for the final unit cell
     Results may differ from those at the preceding step.

     Using Slab Decomposition

     bravais-lattice index     =            0
     lattice parameter (alat)  =       6.0720  a.u.
     unit-cell volume          =    1481.3262 (a.u.)^3
     number of atoms/cell      =            6
     number of atomic types    =            2
     number of electrons       =        52.00
     number of Kohn-Sham states=           26
     kinetic-energy cutoff     =      60.0000  Ry
     charge density cutoff     =     300.0000  Ry
     scf convergence threshold =      1.0E-14
     mixing beta               =       0.3000
     number of iterations used =            8  plain     mixing
     press convergence thresh. =      5.0E-01
     Exchange-correlation= SLA  PW   PSX  PSC
                           (   1   4  10   8   0   0   0)

     celldm(1)=   6.072000  celldm(2)=   0.000000  celldm(3)=   0.000000
     celldm(4)=   0.000000  celldm(5)=   0.000000  celldm(6)=   0.000000

     crystal axes: (cart. coord. in units of alat)
               a(1) = (   0.977224  -0.000137   0.000000 )
               a(2) = (  -0.488455   0.846460   0.000000 )
               a(3) = (   0.000000   0.000000   8.000000 )

     reciprocal axes: (cart. coord. in units 2 pi/alat)
               b(1) = (  1.023389  0.590553  0.000000 )
               b(2) = (  0.000165  1.181486  0.000000 )
               b(3) = (  0.000000  0.000000  0.125000 )

     PseudoPot. # 1 for Mo read from file:
     /shared/home/as3359/pseudo/Mo.pbesol-spn-kjpaw_psl.1.0.0.UPF
     MD5 check sum: de57925cfc675213e43241dcc441eda8
     Pseudo is Projector augmented-wave + core cor, Zval = 14.0
     Generated using &quot;atomic&quot; code by A. Dal Corso  v.6.3
     Shape of augmentation charge: PSQ
     Using radial grid of 1229 points,  6 beta functions with:
                l(1) =   0
                l(2) =   0
                l(3) =   1
                l(4) =   1
                l(5) =   2
                l(6) =   2
     Q(r) pseudized with 0 coefficients

     PseudoPot. # 2 for S  read from file:
     /shared/home/as3359/pseudo/S.pbesol-nl-kjpaw_psl.1.0.0.UPF
     MD5 check sum: bf3db50ec3f960682bbc396f1aadd1dd
     Pseudo is Projector augmented-wave + core cor, Zval =  6.0
     Generated using &quot;atomic&quot; code by A. Dal Corso  v.6.3
     Shape of augmentation charge: PSQ
     Using radial grid of 1151 points,  4 beta functions with:
                l(1) =   0
                l(2) =   0
                l(3) =   1
                l(4) =   1
     Q(r) pseudized with 0 coefficients

     atomic species   valence    mass     pseudopotential
        Mo            14.00    95.94000     Mo( 1.00)
        S              6.00    32.06500     S ( 1.00)

     No symmetry found

   Cartesian axes

     site n.     atom                  positions (alat units)
         1           Mo  tau(   1) = (   0.0000000   0.0000000   0.6672908  )
         2           S   tau(   2) = (   0.4887329   0.2818863   1.1527938  )
         3           S   tau(   3) = (   0.4886683   0.2820494   0.1818588  )
         4           Mo  tau(   4) = (   0.0000000   0.0000000   2.6927140  )
         5           S   tau(   5) = (  -0.4886682  -0.2820493   3.1781390  )
         6           S   tau(   6) = (  -0.4887328  -0.2818862   2.2072035  )

     number of k points=    74
                       cart. coord. in units 2pi/alat
        k(    1) = (   0.0000000   0.0000000   0.0000000), wk =   0.0138889
        k(    2) = (   0.0000138   0.0984572   0.0000000), wk =   0.0277778
        k(    3) = (   0.0000276   0.1969144   0.0000000), wk =   0.0277778
        k(    4) = (   0.0000413   0.2953716   0.0000000), wk =   0.0277778
        k(    5) = (   0.0000551   0.3938288   0.0000000), wk =   0.0277778
        k(    6) = (   0.0000689   0.4922860   0.0000000), wk =   0.0277778
        k(    7) = (  -0.0000827  -0.5907431   0.0000000), wk =   0.0138889
        k(    8) = (   0.0852825   0.0492127   0.0000000), wk =   0.0277778
        k(    9) = (   0.0852962   0.1476699   0.0000000), wk =   0.0277778
        k(   10) = (   0.0853100   0.2461271   0.0000000), wk =   0.0277778
        k(   11) = (   0.0853238   0.3445843   0.0000000), wk =   0.0277778
        k(   12) = (   0.0853376   0.4430415   0.0000000), wk =   0.0277778
        k(   13) = (   0.0853513   0.5414987   0.0000000), wk =   0.0277778
        k(   14) = (   0.0851998  -0.5415304   0.0000000), wk =   0.0277778
        k(   15) = (   0.0852136  -0.4430732   0.0000000), wk =   0.0277778
        k(   16) = (   0.0852273  -0.3446160   0.0000000), wk =   0.0277778
        k(   17) = (   0.0852411  -0.2461588   0.0000000), wk =   0.0277778
        k(   18) = (   0.0852549  -0.1477017   0.0000000), wk =   0.0277778
        k(   19) = (   0.0852687  -0.0492445   0.0000000), wk =   0.0277778
        k(   20) = (   0.1705649   0.0984255   0.0000000), wk =   0.0277778
        k(   21) = (   0.1705787   0.1968827   0.0000000), wk =   0.0277778
        k(   22) = (   0.1705925   0.2953398   0.0000000), wk =   0.0277778
        k(   23) = (   0.1706062   0.3937970   0.0000000), wk =   0.0277778
        k(   24) = (   0.1706200   0.4922542   0.0000000), wk =   0.0277778
        k(   25) = (   0.1706338   0.5907114   0.0000000), wk =   0.0277778
        k(   26) = (   0.1704823  -0.4923177   0.0000000), wk =   0.0277778
        k(   27) = (   0.1704960  -0.3938605   0.0000000), wk =   0.0277778
        k(   28) = (   0.1705098  -0.2954033   0.0000000), wk =   0.0277778
        k(   29) = (   0.1705236  -0.1969461   0.0000000), wk =   0.0277778
        k(   30) = (   0.1705374  -0.0984889   0.0000000), wk =   0.0277778
        k(   31) = (   0.1705511  -0.0000317   0.0000000), wk =   0.0277778
        k(   32) = (   0.2558474   0.1476382   0.0000000), wk =   0.0277778
        k(   33) = (   0.2558612   0.2460954   0.0000000), wk =   0.0277778
        k(   34) = (   0.2558749   0.3445526   0.0000000), wk =   0.0277778
        k(   35) = (   0.2558887   0.4430098   0.0000000), wk =   0.0277778
        k(   36) = (   0.2559025   0.5414670   0.0000000), wk =   0.0277778
        k(   37) = (   0.2559163   0.6399242   0.0000000), wk =   0.0277778
        k(   38) = (   0.2557647  -0.4431050   0.0000000), wk =   0.0277778
        k(   39) = (   0.2557785  -0.3446478   0.0000000), wk =   0.0277778
        k(   40) = (   0.2557923  -0.2461906   0.0000000), wk =   0.0277778
        k(   41) = (   0.2558060  -0.1477334   0.0000000), wk =   0.0277778
        k(   42) = (   0.2558198  -0.0492762   0.0000000), wk =   0.0277778
        k(   43) = (   0.2558336   0.0491810   0.0000000), wk =   0.0277778
        k(   44) = (   0.3411298   0.1968509   0.0000000), wk =   0.0277778
        k(   45) = (   0.3411436   0.2953081   0.0000000), wk =   0.0277778
        k(   46) = (   0.3411574   0.3937653   0.0000000), wk =   0.0277778
        k(   47) = (   0.3411712   0.4922225   0.0000000), wk =   0.0277778
        k(   48) = (   0.3411849   0.5906797   0.0000000), wk =   0.0277778
        k(   49) = (   0.3411987   0.6891369   0.0000000), wk =   0.0277778
        k(   50) = (   0.3410472  -0.3938922   0.0000000), wk =   0.0277778
        k(   51) = (   0.3410609  -0.2954350   0.0000000), wk =   0.0277778
        k(   52) = (   0.3410747  -0.1969778   0.0000000), wk =   0.0277778
        k(   53) = (   0.3410885  -0.0985206   0.0000000), wk =   0.0277778
        k(   54) = (   0.3411023  -0.0000635   0.0000000), wk =   0.0277778
        k(   55) = (   0.3411161   0.0983937   0.0000000), wk =   0.0277778
        k(   56) = (   0.4264123   0.2460637   0.0000000), wk =   0.0277778
        k(   57) = (   0.4264261   0.3445208   0.0000000), wk =   0.0277778
        k(   58) = (   0.4264398   0.4429780   0.0000000), wk =   0.0277778
        k(   59) = (   0.4264536   0.5414352   0.0000000), wk =   0.0277778
        k(   60) = (   0.4264674   0.6398924   0.0000000), wk =   0.0277778
        k(   61) = (   0.4264812   0.7383496   0.0000000), wk =   0.0277778
        k(   62) = (   0.4263296  -0.3446795   0.0000000), wk =   0.0277778
        k(   63) = (   0.4263434  -0.2462223   0.0000000), wk =   0.0277778
        k(   64) = (   0.4263572  -0.1477651   0.0000000), wk =   0.0277778
        k(   65) = (   0.4263710  -0.0493079   0.0000000), wk =   0.0277778
        k(   66) = (   0.4263847   0.0491493   0.0000000), wk =   0.0277778
        k(   67) = (   0.4263985   0.1476065   0.0000000), wk =   0.0277778
        k(   68) = (  -0.5116947  -0.2952764   0.0000000), wk =   0.0138889
        k(   69) = (  -0.5116810  -0.1968192   0.0000000), wk =   0.0277778
        k(   70) = (  -0.5116672  -0.0983620   0.0000000), wk =   0.0277778
        k(   71) = (  -0.5116534   0.0000952   0.0000000), wk =   0.0277778
        k(   72) = (  -0.5116396   0.0985524   0.0000000), wk =   0.0277778
        k(   73) = (  -0.5116259   0.1970096   0.0000000), wk =   0.0277778
        k(   74) = (  -0.5117774  -0.8860195   0.0000000), wk =   0.0138889

     Initial potential from superposition of free atoms

     starting charge   51.99828, renormalised to   52.00000

     negative rho (up, down):  2.740E-04 0.000E+00
     Starting wfcs are   36 randomized atomic wfcs
     Checking if some PAW data can be deallocated...

     Self-consistent Calculation

[...]

     total energy              =    -979.51269189 Ry
     estimated scf accuracy    <          9.8E-14 Ry

     iteration # 31     ecut=    60.00 Ry     beta= 0.30
     Davidson diagonalization with overlap
     ethr =  1.00E-13,  avg # of iterations =  1.0

[...]

     End of self-consistent calculation

[...]

          k = 0.4264 0.1476 0.0000 ( 11620 PWs)   bands (ev):

[...]

          k =-0.5118-0.8860 0.0000 ( 11612 PWs)   bands (ev):

   -58.7352 -58.7352 -33.1561 -33.1561 -32.9011 -32.9011 -32.8233 -32.8232
   -10.2729 -10.2499 -10.1412 -10.1124  -4.0391  -4.0095  -3.0884  -2.9596
    -2.2466  -2.2303  -1.2652  -1.2481  -0.2027   0.1696   1.0364   1.0829
     1.2078   1.3478

     highest occupied level (ev):     2.1973

!    total energy              =    -979.51269189 Ry

     total all-electron energy =    -19376.428382 Ry
     estimated scf accuracy    <          1.7E-15 Ry

     The total energy is the sum of the following terms:
     one-electron contribution =   -2754.30546451 Ry
     hartree contribution      =    1387.78601920 Ry
     xc contribution           =     -59.05436069 Ry
     ewald contribution        =    1071.84359790 Ry
     one-center paw contrib.   =    -625.78248379 Ry

     convergence has been achieved in  31 iterations

     negative rho (up, down):  3.637E-04 0.000E+00

     Forces acting on atoms (cartesian axes, Ry/au):

     atom    1 type  1   force =     0.00010760   -0.00027690    0.00004355
     atom    2 type  2   force =    -0.00009268    0.00023661   -0.00014276
     atom    3 type  2   force =    -0.00001507    0.00004082    0.00002363
     atom    4 type  1   force =    -0.00010748    0.00027724   -0.00006548
     atom    5 type  2   force =     0.00001504   -0.00004099   -0.00001282
     atom    6 type  2   force =     0.00009259   -0.00023677    0.00015387

     Total force =     0.000429     Total SCF correction =     0.000000

     Computing stress (Cartesian axis) and pressure

     negative rho (up, down):  3.637E-04 0.000E+00
          total   stress  (Ry/bohr**3)                   (kbar)     P=       -0.58
  -0.00000039  -0.00000022  -0.00000031           -0.06       -0.03       -0.05
  -0.00000022  -0.00000147   0.00000078           -0.03       -0.22        0.11
  -0.00000031   0.00000078  -0.00000994           -0.05        0.11       -1.46

     Writing output data file /scratch/as3359/MoS2_loop/Ta.save/

     General routines

     Parallel routines

   This run was terminated on:  19: 6:53   9Apr2022

   JOB DONE.