     Program PWSCF v.6.8 starts on 24Mar2022 at  9:33:27

     R & G space division:  proc/nbgrp/npool/nimage =       2

     Reading input from Ta2CO2.vcrelax.in

     Current dimensions of program PWSCF are:
     Max number of different atomic species (ntypx) = 10
     Max number of k-points (npk) =  40000
     Max angular momentum in pseudopotentials (lmaxx) =  4
     file Ta.pbesol-spfn-rrkjus_psl.1.0.0.UPF: wavefunction(s)  5S 5P renormalized

     Subspace diagonalization in iterative solution of the eigenvalue problem:
     a serial algorithm will be used

     Using Slab Decomposition

     bravais-lattice index     =            0
     lattice parameter (alat)  =       5.5500  a.u.
     unit-cell volume          =    1608.7888 (a.u.)^3
     number of atoms/cell      =            5
     number of atomic types    =            3
     number of electrons       =        70.00
     number of Kohn-Sham states=           42
     kinetic-energy cutoff     =      70.0000  Ry
     charge density cutoff     =     700.0000  Ry
     scf convergence threshold =      1.0E-12
     mixing beta               =       0.7000
     number of iterations used =            8  plain     mixing
     energy convergence thresh.=      1.0E-04
     force convergence thresh. =      1.0E-03
     press convergence thresh. =      5.0E-01
     Exchange-correlation= PBESOL
                           (   1   4  10   8   0   0   0)
     nstep                     =           50

     celldm(1)=   5.550000  celldm(2)=   0.000000  celldm(3)=   0.000000
     celldm(4)=   0.000000  celldm(5)=   0.000000  celldm(6)=   0.000000

     crystal axes: (cart. coord. in units of alat)
               a(1) = (   1.043732   0.000891   0.000000 )
               a(2) = (  -0.521795   0.901190   0.000000 )
               a(3) = (   0.000000   0.000000  10.000000 )

     reciprocal axes: (cart. coord. in units 2 pi/alat)
               b(1) = (  0.957627  0.554472  0.000000 )
               b(2) = ( -0.000947  1.109096  0.000000 )
               b(3) = (  0.000000  0.000000  0.100000 )

     PseudoPot. # 1 for Ta read from file:
     /shared/home/as3359/pseudo/Ta.pbesol-spfn-rrkjus_psl.1.0.0.UPF
     MD5 check sum: f099565ffaca9b150a52e9412a28e20b
     Pseudo is Ultrasoft + core correction, Zval = 27.0
     Generated using &quot;atomic&quot; code by A. Dal Corso  v.6.3
     Using radial grid of 1273 points,  8 beta functions with:
                l(1) =   0
                l(2) =   0
                l(3) =   1
                l(4) =   1
                l(5) =   2
                l(6) =   2
                l(7) =   3
                l(8) =   3
     Q(r) pseudized with 0 coefficients

     PseudoPot. # 2 for C  read from file:
     /shared/home/as3359/pseudo/C.pbesol-n-rrkjus_psl.1.0.0.UPF
     MD5 check sum: 05995be603a8a7c99da3dc4413f31573
     Pseudo is Ultrasoft + core correction, Zval =  4.0
     Generated using &quot;atomic&quot; code by A. Dal Corso  v.6.3MaX
     Using radial grid of 1073 points,  4 beta functions with:
                l(1) =   0
                l(2) =   0
                l(3) =   1
                l(4) =   1
     Q(r) pseudized with 0 coefficients

     PseudoPot. # 3 for O  read from file:
     /shared/home/as3359/pseudo/O.pbesol-n-rrkjus_psl.1.0.0.UPF
     MD5 check sum: dd9bad2534826f832ffc9296591fc5de
     Pseudo is Ultrasoft + core correction, Zval =  6.0
     Generated using &quot;atomic&quot; code by A. Dal Corso  v.6.3MaX
     Using radial grid of 1095 points,  4 beta functions with:
                l(1) =   0
                l(2) =   0
                l(3) =   1
                l(4) =   1
     Q(r) pseudized with 0 coefficients

     atomic species   valence    mass     pseudopotential
        Ta            27.00   180.94788     Ta( 1.00)
        C              4.00    12.01070     C ( 1.00)
        O              6.00    15.99940     O ( 1.00)

     No symmetry found

   Cartesian axes

     site n.     atom                  positions (alat units)
         1           C   tau(   1) = (  -0.1376599   0.0180187   0.0193959  )
         2           Ta  tau(   2) = (   0.3842019   0.3193411  -0.4303562  )
         3           Ta  tau(   3) = (  -0.1377470   0.6197475   0.4271741  )
         4           O   tau(   4) = (   0.3846711   0.3199349   0.8048845  )
         5           O   tau(   5) = (  -0.1374755   0.0184454  -0.8210983  )

     number of k points=    74  Marzari-Vanderbilt smearing, width (Ry)=  0.0010
                       cart. coord. in units 2pi/alat
        k(    1) = (   0.0000000   0.0000000   0.0000000), wk =   0.0138889
        k(    2) = (  -0.0000789   0.0924246   0.0000000), wk =   0.0277778
        k(    3) = (  -0.0001578   0.1848493   0.0000000), wk =   0.0277778
        k(    4) = (  -0.0002367   0.2772739   0.0000000), wk =   0.0277778
        k(    5) = (  -0.0003157   0.3696985   0.0000000), wk =   0.0277778
        k(    6) = (  -0.0003946   0.4621232   0.0000000), wk =   0.0277778
        k(    7) = (   0.0004735  -0.5545478   0.0000000), wk =   0.0138889
        k(    8) = (   0.0798022   0.0462060   0.0000000), wk =   0.0277778
        k(    9) = (   0.0797233   0.1386307   0.0000000), wk =   0.0277778
        k(   10) = (   0.0796444   0.2310553   0.0000000), wk =   0.0277778
        k(   11) = (   0.0795655   0.3234799   0.0000000), wk =   0.0277778
        k(   12) = (   0.0794866   0.4159046   0.0000000), wk =   0.0277778
        k(   13) = (   0.0794077   0.5083292   0.0000000), wk =   0.0277778
        k(   14) = (   0.0802757  -0.5083418   0.0000000), wk =   0.0277778
        k(   15) = (   0.0801968  -0.4159171   0.0000000), wk =   0.0277778
        k(   16) = (   0.0801179  -0.3234925   0.0000000), wk =   0.0277778
        k(   17) = (   0.0800390  -0.2310679   0.0000000), wk =   0.0277778
        k(   18) = (   0.0799601  -0.1386432   0.0000000), wk =   0.0277778
        k(   19) = (   0.0798811  -0.0462186   0.0000000), wk =   0.0277778
        k(   20) = (   0.1596045   0.0924121   0.0000000), wk =   0.0277778
        k(   21) = (   0.1595256   0.1848367   0.0000000), wk =   0.0277778
        k(   22) = (   0.1594466   0.2772613   0.0000000), wk =   0.0277778
        k(   23) = (   0.1593677   0.3696860   0.0000000), wk =   0.0277778
        k(   24) = (   0.1592888   0.4621106   0.0000000), wk =   0.0277778
        k(   25) = (   0.1592099   0.5545352   0.0000000), wk =   0.0277778
        k(   26) = (   0.1600779  -0.4621357   0.0000000), wk =   0.0277778
        k(   27) = (   0.1599990  -0.3697111   0.0000000), wk =   0.0277778
        k(   28) = (   0.1599201  -0.2772865   0.0000000), wk =   0.0277778
        k(   29) = (   0.1598412  -0.1848618   0.0000000), wk =   0.0277778
        k(   30) = (   0.1597623  -0.0924372   0.0000000), wk =   0.0277778
        k(   31) = (   0.1596834  -0.0000126   0.0000000), wk =   0.0277778
        k(   32) = (   0.2394067   0.1386181   0.0000000), wk =   0.0277778
        k(   33) = (   0.2393278   0.2310427   0.0000000), wk =   0.0277778
        k(   34) = (   0.2392489   0.3234674   0.0000000), wk =   0.0277778
        k(   35) = (   0.2391700   0.4158920   0.0000000), wk =   0.0277778
        k(   36) = (   0.2390910   0.5083166   0.0000000), wk =   0.0277778
        k(   37) = (   0.2390121   0.6007413   0.0000000), wk =   0.0277778
        k(   38) = (   0.2398802  -0.4159297   0.0000000), wk =   0.0277778
        k(   39) = (   0.2398013  -0.3235051   0.0000000), wk =   0.0277778
        k(   40) = (   0.2397223  -0.2310804   0.0000000), wk =   0.0277778
        k(   41) = (   0.2396434  -0.1386558   0.0000000), wk =   0.0277778
        k(   42) = (   0.2395645  -0.0462312   0.0000000), wk =   0.0277778
        k(   43) = (   0.2394856   0.0461935   0.0000000), wk =   0.0277778
        k(   44) = (   0.3192089   0.1848241   0.0000000), wk =   0.0277778
        k(   45) = (   0.3191300   0.2772488   0.0000000), wk =   0.0277778
        k(   46) = (   0.3190511   0.3696734   0.0000000), wk =   0.0277778
        k(   47) = (   0.3189722   0.4620980   0.0000000), wk =   0.0277778
        k(   48) = (   0.3188933   0.5545227   0.0000000), wk =   0.0277778
        k(   49) = (   0.3188144   0.6469473   0.0000000), wk =   0.0277778
        k(   50) = (   0.3196824  -0.3697237   0.0000000), wk =   0.0277778
        k(   51) = (   0.3196035  -0.2772990   0.0000000), wk =   0.0277778
        k(   52) = (   0.3195246  -0.1848744   0.0000000), wk =   0.0277778
        k(   53) = (   0.3194457  -0.0924498   0.0000000), wk =   0.0277778
        k(   54) = (   0.3193668  -0.0000251   0.0000000), wk =   0.0277778
        k(   55) = (   0.3192878   0.0923995   0.0000000), wk =   0.0277778
        k(   56) = (   0.3990112   0.2310302   0.0000000), wk =   0.0277778
        k(   57) = (   0.3989322   0.3234548   0.0000000), wk =   0.0277778
        k(   58) = (   0.3988533   0.4158794   0.0000000), wk =   0.0277778
        k(   59) = (   0.3987744   0.5083041   0.0000000), wk =   0.0277778
        k(   60) = (   0.3986955   0.6007287   0.0000000), wk =   0.0277778
        k(   61) = (   0.3986166   0.6931533   0.0000000), wk =   0.0277778
        k(   62) = (   0.3994846  -0.3235176   0.0000000), wk =   0.0277778
        k(   63) = (   0.3994057  -0.2310930   0.0000000), wk =   0.0277778
        k(   64) = (   0.3993268  -0.1386684   0.0000000), wk =   0.0277778
        k(   65) = (   0.3992479  -0.0462437   0.0000000), wk =   0.0277778
        k(   66) = (   0.3991690   0.0461809   0.0000000), wk =   0.0277778
        k(   67) = (   0.3990901   0.1386055   0.0000000), wk =   0.0277778
        k(   68) = (  -0.4788134  -0.2772362   0.0000000), wk =   0.0138889
        k(   69) = (  -0.4788923  -0.1848116   0.0000000), wk =   0.0277778
        k(   70) = (  -0.4789712  -0.0923869   0.0000000), wk =   0.0277778
        k(   71) = (  -0.4790501   0.0000377   0.0000000), wk =   0.0277778
        k(   72) = (  -0.4791290   0.0924623   0.0000000), wk =   0.0277778
        k(   73) = (  -0.4792080   0.1848870   0.0000000), wk =   0.0277778
        k(   74) = (  -0.4783399  -0.8317840   0.0000000), wk =   0.0138889

     Initial potential from superposition of free atoms

     starting charge   69.99841, renormalised to   70.00000

     negative rho (up, down):  1.350E-04 0.000E+00
     Starting wfcs are   46 randomized atomic wfcs

     Self-consistent Calculation

     iteration #  1     ecut=    70.00 Ry     beta= 0.70
     Davidson diagonalization with overlap
     ethr =  1.00E-02,  avg # of iterations =  2.0

     WARNING: integrated charge=    70.00058655, expected=    70.00000000

     total energy              =   -1437.39834742 Ry
     estimated scf accuracy    <       1.65383594 Ry

[...]

     negative rho (up, down):  2.958E-06 0.000E+00

[...]

     iteration #  9     ecut=    70.00 Ry     beta= 0.70
     Davidson diagonalization with overlap
     ethr =  5.94E-05,  avg # of iterations =  1.9
     Minimization algorithm failed to find Fermi energy: reverting to bisection
     Possible cause: smearing is larger than the electronic band-gap.

[...]

     WARNING: integrated charge=    70.00002719, expected=    70.00000000

[...]
[...]

     Threshold (ethr) on eigenvalues was too large:
     Diagonalizing with lowered threshold

     Davidson diagonalization with overlap
     ethr =  1.30E-08,  avg # of iterations =  4.2

[...]

     Energy error            =      2.4E-06 Ry
     Gradient error          =      5.0E-04 Ry/Bohr
     Cell gradient error     =      5.4E-01 kbar

     number of scf cycles    =   2
     number of bfgs steps    =   1

     enthalpy           old  =   -1438.3561652595 Ry
     enthalpy           new  =   -1438.3561676413 Ry

     CASE: enthalpy          _new < enthalpy          _old

     new trust radius        =       0.0010377348 bohr
     new conv_thr            =            1.0E-14 Ry

     new unit-cell volume =   1608.71547 a.u.^3 (   238.38704 Ang^3 )
     density =      2.82743 g/cm^3

[...]

ATOMIC_POSITIONS (alat)
C            -0.1376285070        0.0180316996        0.0193958690    0   0   0
Ta            0.3841510700        0.3192090430       -0.4303688945
Ta           -0.1376463938        0.6197159311        0.4272141804
O             0.3845752569        0.3202170106        0.8049305412
O            -0.1374361784        0.0185581729       -0.8211192040

     Writing output data file /scratch/as3359/Ta2CO2_loop/Ta.save/
     NEW-OLD atomic charge density approx. for the potential

     negative rho (up, down):  1.472E-04 0.000E+00
     extrapolated charge   69.99832, renormalised to   70.00000

[...]

     Threshold (ethr) on eigenvalues was too large:
     Diagonalizing with lowered threshold

     Davidson diagonalization with overlap
     ethr =  1.57E-08,  avg # of iterations =  4.1

[...]

     Energy error            =      1.7E-06 Ry
     Gradient error          =      3.0E-04 Ry/Bohr
     Cell gradient error     =      4.0E-01 kbar

     bfgs converged in   3 scf cycles and   2 bfgs steps
     (criteria: energy <  1.0E-04 Ry, force <  1.0E-03Ry/Bohr, cell <  5.0E-01kbar)

     End of BFGS Geometry Optimization

     Final enthalpy           =   -1438.3561693796 Ry

     File /scratch/as3359/Ta2CO2_loop/Ta.bfgs deleted, as requested
Begin final coordinates
     new unit-cell volume =   1608.71547 a.u.^3 (   238.38704 Ang^3 )
     density =      2.82743 g/cm^3

CELL_PARAMETERS (alat=  5.55000000)
   1.043484737   0.000819003   0.000000000
  -0.521733898   0.901398720   0.000000000
   0.000000000   0.000000000  10.000000000

ATOMIC_POSITIONS (alat)
C            -0.1376285070        0.0180316996        0.0193958690    0   0   0
Ta            0.3841510700        0.3192090430       -0.4303688945
Ta           -0.1376463938        0.6197159311        0.4272141804
O             0.3845752569        0.3202170106        0.8049305412
O            -0.1374361784        0.0185581729       -0.8211192040
End final coordinates

     Writing output data file /scratch/as3359/Ta2CO2_loop/Ta.save/

     Final scf calculation at the relaxed structure.
     The G-vectors are recalculated for the final unit cell
     Results may differ from those at the preceding step.

     Using Slab Decomposition

     bravais-lattice index     =            0
     lattice parameter (alat)  =       5.5500  a.u.
     unit-cell volume          =    1608.7155 (a.u.)^3
     number of atoms/cell      =            5
     number of atomic types    =            3
     number of electrons       =        70.00
     number of Kohn-Sham states=           42
     kinetic-energy cutoff     =      70.0000  Ry
     charge density cutoff     =     700.0000  Ry
     scf convergence threshold =      1.0E-14
     mixing beta               =       0.7000
     number of iterations used =            8  plain     mixing
     press convergence thresh. =      5.0E-01
     Exchange-correlation= PBESOL
                           (   1   4  10   8   0   0   0)

     celldm(1)=   5.550000  celldm(2)=   0.000000  celldm(3)=   0.000000
     celldm(4)=   0.000000  celldm(5)=   0.000000  celldm(6)=   0.000000

     crystal axes: (cart. coord. in units of alat)
               a(1) = (   1.043485   0.000819   0.000000 )
               a(2) = (  -0.521734   0.901399   0.000000 )
               a(3) = (   0.000000   0.000000  10.000000 )

     reciprocal axes: (cart. coord. in units 2 pi/alat)
               b(1) = (  0.957892  0.554433  0.000000 )
               b(2) = ( -0.000870  1.108883  0.000000 )
               b(3) = (  0.000000  0.000000  0.100000 )

     PseudoPot. # 1 for Ta read from file:
     /shared/home/as3359/pseudo/Ta.pbesol-spfn-rrkjus_psl.1.0.0.UPF
     MD5 check sum: f099565ffaca9b150a52e9412a28e20b
     Pseudo is Ultrasoft + core correction, Zval = 27.0
     Generated using &quot;atomic&quot; code by A. Dal Corso  v.6.3
     Using radial grid of 1273 points,  8 beta functions with:
                l(1) =   0
                l(2) =   0
                l(3) =   1
                l(4) =   1
                l(5) =   2
                l(6) =   2
                l(7) =   3
                l(8) =   3
     Q(r) pseudized with 0 coefficients

     PseudoPot. # 2 for C  read from file:
     /shared/home/as3359/pseudo/C.pbesol-n-rrkjus_psl.1.0.0.UPF
     MD5 check sum: 05995be603a8a7c99da3dc4413f31573
     Pseudo is Ultrasoft + core correction, Zval =  4.0
     Generated using &quot;atomic&quot; code by A. Dal Corso  v.6.3MaX
     Using radial grid of 1073 points,  4 beta functions with:
                l(1) =   0
                l(2) =   0
                l(3) =   1
                l(4) =   1
     Q(r) pseudized with 0 coefficients

     PseudoPot. # 3 for O  read from file:
     /shared/home/as3359/pseudo/O.pbesol-n-rrkjus_psl.1.0.0.UPF
     MD5 check sum: dd9bad2534826f832ffc9296591fc5de
     Pseudo is Ultrasoft + core correction, Zval =  6.0
     Generated using &quot;atomic&quot; code by A. Dal Corso  v.6.3MaX
     Using radial grid of 1095 points,  4 beta functions with:
                l(1) =   0
                l(2) =   0
                l(3) =   1
                l(4) =   1
     Q(r) pseudized with 0 coefficients

     atomic species   valence    mass     pseudopotential
        Ta            27.00   180.94788     Ta( 1.00)
        C              4.00    12.01070     C ( 1.00)
        O              6.00    15.99940     O ( 1.00)

     No symmetry found

   Cartesian axes

     site n.     atom                  positions (alat units)
         1           C   tau(   1) = (  -0.1376285   0.0180317   0.0193959  )
         2           Ta  tau(   2) = (   0.3841511   0.3192090  -0.4303689  )
         3           Ta  tau(   3) = (  -0.1376464   0.6197159   0.4272142  )
         4           O   tau(   4) = (   0.3845753   0.3202170   0.8049305  )
         5           O   tau(   5) = (  -0.1374362   0.0185582  -0.8211192  )

     number of k points=    74  Marzari-Vanderbilt smearing, width (Ry)=  0.0010
                       cart. coord. in units 2pi/alat
        k(    1) = (   0.0000000   0.0000000   0.0000000), wk =   0.0138889
        k(    2) = (  -0.0000725   0.0924069   0.0000000), wk =   0.0277778
        k(    3) = (  -0.0001451   0.1848139   0.0000000), wk =   0.0277778
        k(    4) = (  -0.0002176   0.2772208   0.0000000), wk =   0.0277778
        k(    5) = (  -0.0002901   0.3696277   0.0000000), wk =   0.0277778
        k(    6) = (  -0.0003626   0.4620347   0.0000000), wk =   0.0277778
        k(    7) = (   0.0004352  -0.5544416   0.0000000), wk =   0.0138889
        k(    8) = (   0.0798244   0.0462027   0.0000000), wk =   0.0277778
        k(    9) = (   0.0797518   0.1386097   0.0000000), wk =   0.0277778
        k(   10) = (   0.0796793   0.2310166   0.0000000), wk =   0.0277778
        k(   11) = (   0.0796068   0.3234235   0.0000000), wk =   0.0277778
        k(   12) = (   0.0795342   0.4158305   0.0000000), wk =   0.0277778
        k(   13) = (   0.0794617   0.5082374   0.0000000), wk =   0.0277778
        k(   14) = (   0.0802595  -0.5082389   0.0000000), wk =   0.0277778
        k(   15) = (   0.0801870  -0.4158320   0.0000000), wk =   0.0277778
        k(   16) = (   0.0801145  -0.3234250   0.0000000), wk =   0.0277778
        k(   17) = (   0.0800419  -0.2310181   0.0000000), wk =   0.0277778
        k(   18) = (   0.0799694  -0.1386112   0.0000000), wk =   0.0277778
        k(   19) = (   0.0798969  -0.0462042   0.0000000), wk =   0.0277778
        k(   20) = (   0.1596487   0.0924054   0.0000000), wk =   0.0277778
        k(   21) = (   0.1595762   0.1848124   0.0000000), wk =   0.0277778
        k(   22) = (   0.1595036   0.2772193   0.0000000), wk =   0.0277778
        k(   23) = (   0.1594311   0.3696262   0.0000000), wk =   0.0277778
        k(   24) = (   0.1593586   0.4620332   0.0000000), wk =   0.0277778
        k(   25) = (   0.1592861   0.5544401   0.0000000), wk =   0.0277778
        k(   26) = (   0.1600839  -0.4620362   0.0000000), wk =   0.0277778
        k(   27) = (   0.1600113  -0.3696292   0.0000000), wk =   0.0277778
        k(   28) = (   0.1599388  -0.2772223   0.0000000), wk =   0.0277778
        k(   29) = (   0.1598663  -0.1848154   0.0000000), wk =   0.0277778
        k(   30) = (   0.1597938  -0.0924084   0.0000000), wk =   0.0277778
        k(   31) = (   0.1597212  -0.0000015   0.0000000), wk =   0.0277778
        k(   32) = (   0.2394731   0.1386082   0.0000000), wk =   0.0277778
        k(   33) = (   0.2394005   0.2310151   0.0000000), wk =   0.0277778
        k(   34) = (   0.2393280   0.3234220   0.0000000), wk =   0.0277778
        k(   35) = (   0.2392555   0.4158290   0.0000000), wk =   0.0277778
        k(   36) = (   0.2391829   0.5082359   0.0000000), wk =   0.0277778
        k(   37) = (   0.2391104   0.6006428   0.0000000), wk =   0.0277778
        k(   38) = (   0.2399082  -0.4158335   0.0000000), wk =   0.0277778
        k(   39) = (   0.2398357  -0.3234265   0.0000000), wk =   0.0277778
        k(   40) = (   0.2397632  -0.2310196   0.0000000), wk =   0.0277778
        k(   41) = (   0.2396906  -0.1386127   0.0000000), wk =   0.0277778
        k(   42) = (   0.2396181  -0.0462057   0.0000000), wk =   0.0277778
        k(   43) = (   0.2395456   0.0462012   0.0000000), wk =   0.0277778
        k(   44) = (   0.3192974   0.1848109   0.0000000), wk =   0.0277778
        k(   45) = (   0.3192249   0.2772178   0.0000000), wk =   0.0277778
        k(   46) = (   0.3191524   0.3696247   0.0000000), wk =   0.0277778
        k(   47) = (   0.3190798   0.4620317   0.0000000), wk =   0.0277778
        k(   48) = (   0.3190073   0.5544386   0.0000000), wk =   0.0277778
        k(   49) = (   0.3189348   0.6468455   0.0000000), wk =   0.0277778
        k(   50) = (   0.3197326  -0.3696307   0.0000000), wk =   0.0277778
        k(   51) = (   0.3196600  -0.2772238   0.0000000), wk =   0.0277778
        k(   52) = (   0.3195875  -0.1848169   0.0000000), wk =   0.0277778
        k(   53) = (   0.3195150  -0.0924099   0.0000000), wk =   0.0277778
        k(   54) = (   0.3194425  -0.0000030   0.0000000), wk =   0.0277778
        k(   55) = (   0.3193699   0.0924039   0.0000000), wk =   0.0277778
        k(   56) = (   0.3991218   0.2310136   0.0000000), wk =   0.0277778
        k(   57) = (   0.3990492   0.3234205   0.0000000), wk =   0.0277778
        k(   58) = (   0.3989767   0.4158275   0.0000000), wk =   0.0277778
        k(   59) = (   0.3989042   0.5082344   0.0000000), wk =   0.0277778
        k(   60) = (   0.3988317   0.6006413   0.0000000), wk =   0.0277778
        k(   61) = (   0.3987591   0.6930483   0.0000000), wk =   0.0277778
        k(   62) = (   0.3995569  -0.3234280   0.0000000), wk =   0.0277778
        k(   63) = (   0.3994844  -0.2310211   0.0000000), wk =   0.0277778
        k(   64) = (   0.3994119  -0.1386142   0.0000000), wk =   0.0277778
        k(   65) = (   0.3993393  -0.0462072   0.0000000), wk =   0.0277778
        k(   66) = (   0.3992668   0.0461997   0.0000000), wk =   0.0277778
        k(   67) = (   0.3991943   0.1386067   0.0000000), wk =   0.0277778
        k(   68) = (  -0.4789461  -0.2772163   0.0000000), wk =   0.0138889
        k(   69) = (  -0.4790186  -0.1848094   0.0000000), wk =   0.0277778
        k(   70) = (  -0.4790912  -0.0924024   0.0000000), wk =   0.0277778
        k(   71) = (  -0.4791637   0.0000045   0.0000000), wk =   0.0277778
        k(   72) = (  -0.4792362   0.0924114   0.0000000), wk =   0.0277778
        k(   73) = (  -0.4793088   0.1848184   0.0000000), wk =   0.0277778
        k(   74) = (  -0.4785109  -0.8316579   0.0000000), wk =   0.0138889

     Initial potential from superposition of free atoms

     starting charge   69.99841, renormalised to   70.00000

     negative rho (up, down):  1.349E-04 0.000E+00
     Starting wfcs are   46 randomized atomic wfcs

     Self-consistent Calculation

     iteration #  1     ecut=    70.00 Ry     beta= 0.70
     Davidson diagonalization with overlap
     c_bands:  3 eigenvalues not converged
     c_bands:  1 eigenvalues not converged
     c_bands:  2 eigenvalues not converged
     c_bands:  1 eigenvalues not converged
     c_bands:  1 eigenvalues not converged
     c_bands:  1 eigenvalues not converged
     c_bands:  3 eigenvalues not converged
     c_bands:  1 eigenvalues not converged
     c_bands:  1 eigenvalues not converged
     c_bands:  3 eigenvalues not converged
     c_bands:  1 eigenvalues not converged
     c_bands:  1 eigenvalues not converged
     c_bands:  1 eigenvalues not converged
     c_bands:  2 eigenvalues not converged
     c_bands:  2 eigenvalues not converged
     c_bands:  2 eigenvalues not converged
     c_bands:  3 eigenvalues not converged
     c_bands:  1 eigenvalues not converged
     c_bands:  3 eigenvalues not converged
     c_bands:  2 eigenvalues not converged
     c_bands:  2 eigenvalues not converged
     c_bands:  3 eigenvalues not converged
     c_bands:  3 eigenvalues not converged
     c_bands:  1 eigenvalues not converged
     c_bands:  1 eigenvalues not converged
     c_bands:  2 eigenvalues not converged
     ethr =  1.00E-06,  avg # of iterations = 18.9

[...]

     iteration #  6     ecut=    70.00 Ry     beta= 0.70
     Davidson diagonalization with overlap
     c_bands:  1 eigenvalues not converged
     ethr =  2.69E-04,  avg # of iterations =  7.4

[...]

     total energy              =   -1438.35616909 Ry
     estimated scf accuracy    <          7.5E-14 Ry

     iteration # 29     ecut=    70.00 Ry     beta= 0.70
     Davidson diagonalization with overlap
     ethr =  1.00E-13,  avg # of iterations =  1.0

[...]

     End of self-consistent calculation

[...]

          k = 0.3992 0.1386 0.0000 ( 15919 PWs)   bands (ev):

[...]

          k =-0.4785-0.8317 0.0000 ( 15918 PWs)   bands (ev):

   -69.6598 -68.8647 -36.7283 -36.2257 -36.1093 -35.8138 -35.4096 -35.2626
   -21.3495 -21.2807 -21.2790 -21.2642 -21.2584 -21.2562 -21.2518 -20.5822
   -20.5303 -20.5169 -20.5108 -20.4979 -20.4884 -20.4804 -19.6244 -18.7055
   -12.2108  -8.7202  -6.5186  -6.2691  -6.0731  -5.6134  -5.1457  -4.9688
    -3.3697  -3.0696  -1.7684   0.9703   2.7576   2.9308   3.5722   3.7300
     4.7423   4.9300

     the Fermi energy is    -0.2547 ev

!    total energy              =   -1438.35616909 Ry
     estimated scf accuracy    <          5.1E-15 Ry
     smearing contrib. (-TS)   =       0.00000065 Ry
     internal energy E=F+TS    =   -1438.35616973 Ry

     The total energy is F=E-TS. E is the sum of the following terms:
     one-electron contribution =  -14107.01699292 Ry
     hartree contribution      =    7084.40878720 Ry
     xc contribution           =    -153.69909387 Ry
     ewald contribution        =    5737.95112986 Ry

     convergence has been achieved in  29 iterations

     negative rho (up, down):  1.473E-04 0.000E+00

     Forces acting on atoms (cartesian axes, Ry/au):

     atom    1 type  2   force =    -0.00029582   -0.00012238   -0.00010721
     atom    2 type  1   force =     0.00006956   -0.00004371   -0.00000700
     atom    3 type  1   force =     0.00016680   -0.00018032    0.00005267
     atom    4 type  3   force =     0.00003547    0.00030417    0.00010090
     atom    5 type  3   force =     0.00002399    0.00004224   -0.00003936

     Total force =     0.000422     Total SCF correction =     0.000000

     Computing stress (Cartesian axis) and pressure

     negative rho (up, down):  1.473E-04 0.000E+00
          total   stress  (Ry/bohr**3)                   (kbar)     P=       -0.35
  -0.00000277  -0.00000090   0.00000015           -0.41       -0.13        0.02
  -0.00000090   0.00000222   0.00000052           -0.13        0.33        0.08
   0.00000015   0.00000052  -0.00000657            0.02        0.08       -0.97

     Writing output data file /scratch/as3359/Ta2CO2_loop/Ta.save/

     General routines

     Parallel routines

   This run was terminated on:  10: 4:44  24Mar2022

   JOB DONE.