     Program PWSCF v.6.8 starts on 24Mar2022 at 10: 4:45

     R & G space division:  proc/nbgrp/npool/nimage =       2

     Reading input from Ta2CO2.relax.in
Warning: card  &CELL ignored
Warning: card     CELL_DYNAMICS='BFGS', CELL_DOFREE ='2DXY' ignored
Warning: card  / ignored

     Current dimensions of program PWSCF are:
     Max number of different atomic species (ntypx) = 10
     Max number of k-points (npk) =  40000
     Max angular momentum in pseudopotentials (lmaxx) =  4
     file Ta.pbesol-spfn-rrkjus_psl.1.0.0.UPF: wavefunction(s)  5S 5P renormalized

     Subspace diagonalization in iterative solution of the eigenvalue problem:
     a serial algorithm will be used

     Using Slab Decomposition

     bravais-lattice index     =            0
     lattice parameter (alat)  =       5.5500  a.u.
     unit-cell volume          =    1608.7155 (a.u.)^3
     number of atoms/cell      =            5
     number of atomic types    =            3
     number of electrons       =        70.00
     number of Kohn-Sham states=           42
     kinetic-energy cutoff     =      70.0000  Ry
     charge density cutoff     =     700.0000  Ry
     scf convergence threshold =      1.0E-12
     mixing beta               =       0.7000
     number of iterations used =            8  plain     mixing
     energy convergence thresh.=      1.0E-04
     force convergence thresh. =      1.0E-03
     Exchange-correlation= PBESOL
                           (   1   4  10   8   0   0   0)
     nstep                     =           50

     celldm(1)=   5.550000  celldm(2)=   0.000000  celldm(3)=   0.000000
     celldm(4)=   0.000000  celldm(5)=   0.000000  celldm(6)=   0.000000

     crystal axes: (cart. coord. in units of alat)
               a(1) = (   1.043485   0.000819   0.000000 )
               a(2) = (  -0.521734   0.901399   0.000000 )
               a(3) = (   0.000000   0.000000  10.000000 )

     reciprocal axes: (cart. coord. in units 2 pi/alat)
               b(1) = (  0.957892  0.554433  0.000000 )
               b(2) = ( -0.000870  1.108883  0.000000 )
               b(3) = (  0.000000  0.000000  0.100000 )

     PseudoPot. # 1 for Ta read from file:
     /shared/home/as3359/pseudo/Ta.pbesol-spfn-rrkjus_psl.1.0.0.UPF
     MD5 check sum: f099565ffaca9b150a52e9412a28e20b
     Pseudo is Ultrasoft + core correction, Zval = 27.0
     Generated using &quot;atomic&quot; code by A. Dal Corso  v.6.3
     Using radial grid of 1273 points,  8 beta functions with:
                l(1) =   0
                l(2) =   0
                l(3) =   1
                l(4) =   1
                l(5) =   2
                l(6) =   2
                l(7) =   3
                l(8) =   3
     Q(r) pseudized with 0 coefficients

     PseudoPot. # 2 for C  read from file:
     /shared/home/as3359/pseudo/C.pbesol-n-rrkjus_psl.1.0.0.UPF
     MD5 check sum: 05995be603a8a7c99da3dc4413f31573
     Pseudo is Ultrasoft + core correction, Zval =  4.0
     Generated using &quot;atomic&quot; code by A. Dal Corso  v.6.3MaX
     Using radial grid of 1073 points,  4 beta functions with:
                l(1) =   0
                l(2) =   0
                l(3) =   1
                l(4) =   1
     Q(r) pseudized with 0 coefficients

     PseudoPot. # 3 for O  read from file:
     /shared/home/as3359/pseudo/O.pbesol-n-rrkjus_psl.1.0.0.UPF
     MD5 check sum: dd9bad2534826f832ffc9296591fc5de
     Pseudo is Ultrasoft + core correction, Zval =  6.0
     Generated using &quot;atomic&quot; code by A. Dal Corso  v.6.3MaX
     Using radial grid of 1095 points,  4 beta functions with:
                l(1) =   0
                l(2) =   0
                l(3) =   1
                l(4) =   1
     Q(r) pseudized with 0 coefficients

     atomic species   valence    mass     pseudopotential
        Ta            27.00   180.94788     Ta( 1.00)
        C              4.00    12.01070     C ( 1.00)
        O              6.00    15.99940     O ( 1.00)

     No symmetry found

   Cartesian axes

     site n.     atom                  positions (alat units)
         1           C   tau(   1) = (  -0.1376285   0.0180317   0.0193959  )
         2           Ta  tau(   2) = (   0.3841511   0.3192090  -0.4303689  )
         3           Ta  tau(   3) = (  -0.1376464   0.6197159   0.4272142  )
         4           O   tau(   4) = (   0.3845753   0.3202170   0.8049305  )
         5           O   tau(   5) = (  -0.1374362   0.0185582  -0.8211192  )

     number of k points=    74  Marzari-Vanderbilt smearing, width (Ry)=  0.0010
                       cart. coord. in units 2pi/alat
        k(    1) = (   0.0000000   0.0000000   0.0000000), wk =   0.0138889
        k(    2) = (  -0.0000725   0.0924069   0.0000000), wk =   0.0277778
        k(    3) = (  -0.0001451   0.1848139   0.0000000), wk =   0.0277778
        k(    4) = (  -0.0002176   0.2772208   0.0000000), wk =   0.0277778
        k(    5) = (  -0.0002901   0.3696277   0.0000000), wk =   0.0277778
        k(    6) = (  -0.0003626   0.4620347   0.0000000), wk =   0.0277778
        k(    7) = (   0.0004352  -0.5544416   0.0000000), wk =   0.0138889
        k(    8) = (   0.0798244   0.0462027   0.0000000), wk =   0.0277778
        k(    9) = (   0.0797518   0.1386097   0.0000000), wk =   0.0277778
        k(   10) = (   0.0796793   0.2310166   0.0000000), wk =   0.0277778
        k(   11) = (   0.0796068   0.3234235   0.0000000), wk =   0.0277778
        k(   12) = (   0.0795342   0.4158305   0.0000000), wk =   0.0277778
        k(   13) = (   0.0794617   0.5082374   0.0000000), wk =   0.0277778
        k(   14) = (   0.0802595  -0.5082389   0.0000000), wk =   0.0277778
        k(   15) = (   0.0801870  -0.4158320   0.0000000), wk =   0.0277778
        k(   16) = (   0.0801145  -0.3234250   0.0000000), wk =   0.0277778
        k(   17) = (   0.0800419  -0.2310181   0.0000000), wk =   0.0277778
        k(   18) = (   0.0799694  -0.1386112   0.0000000), wk =   0.0277778
        k(   19) = (   0.0798969  -0.0462042   0.0000000), wk =   0.0277778
        k(   20) = (   0.1596487   0.0924054   0.0000000), wk =   0.0277778
        k(   21) = (   0.1595762   0.1848124   0.0000000), wk =   0.0277778
        k(   22) = (   0.1595036   0.2772193   0.0000000), wk =   0.0277778
        k(   23) = (   0.1594311   0.3696262   0.0000000), wk =   0.0277778
        k(   24) = (   0.1593586   0.4620332   0.0000000), wk =   0.0277778
        k(   25) = (   0.1592861   0.5544401   0.0000000), wk =   0.0277778
        k(   26) = (   0.1600839  -0.4620362   0.0000000), wk =   0.0277778
        k(   27) = (   0.1600113  -0.3696292   0.0000000), wk =   0.0277778
        k(   28) = (   0.1599388  -0.2772223   0.0000000), wk =   0.0277778
        k(   29) = (   0.1598663  -0.1848154   0.0000000), wk =   0.0277778
        k(   30) = (   0.1597938  -0.0924084   0.0000000), wk =   0.0277778
        k(   31) = (   0.1597212  -0.0000015   0.0000000), wk =   0.0277778
        k(   32) = (   0.2394731   0.1386082   0.0000000), wk =   0.0277778
        k(   33) = (   0.2394005   0.2310151   0.0000000), wk =   0.0277778
        k(   34) = (   0.2393280   0.3234220   0.0000000), wk =   0.0277778
        k(   35) = (   0.2392555   0.4158290   0.0000000), wk =   0.0277778
        k(   36) = (   0.2391829   0.5082359   0.0000000), wk =   0.0277778
        k(   37) = (   0.2391104   0.6006428   0.0000000), wk =   0.0277778
        k(   38) = (   0.2399082  -0.4158335   0.0000000), wk =   0.0277778
        k(   39) = (   0.2398357  -0.3234265   0.0000000), wk =   0.0277778
        k(   40) = (   0.2397632  -0.2310196   0.0000000), wk =   0.0277778
        k(   41) = (   0.2396906  -0.1386127   0.0000000), wk =   0.0277778
        k(   42) = (   0.2396181  -0.0462057   0.0000000), wk =   0.0277778
        k(   43) = (   0.2395456   0.0462012   0.0000000), wk =   0.0277778
        k(   44) = (   0.3192974   0.1848109   0.0000000), wk =   0.0277778
        k(   45) = (   0.3192249   0.2772178   0.0000000), wk =   0.0277778
        k(   46) = (   0.3191524   0.3696247   0.0000000), wk =   0.0277778
        k(   47) = (   0.3190798   0.4620317   0.0000000), wk =   0.0277778
        k(   48) = (   0.3190073   0.5544386   0.0000000), wk =   0.0277778
        k(   49) = (   0.3189348   0.6468455   0.0000000), wk =   0.0277778
        k(   50) = (   0.3197326  -0.3696307   0.0000000), wk =   0.0277778
        k(   51) = (   0.3196600  -0.2772238   0.0000000), wk =   0.0277778
        k(   52) = (   0.3195875  -0.1848169   0.0000000), wk =   0.0277778
        k(   53) = (   0.3195150  -0.0924099   0.0000000), wk =   0.0277778
        k(   54) = (   0.3194425  -0.0000030   0.0000000), wk =   0.0277778
        k(   55) = (   0.3193699   0.0924039   0.0000000), wk =   0.0277778
        k(   56) = (   0.3991218   0.2310136   0.0000000), wk =   0.0277778
        k(   57) = (   0.3990492   0.3234205   0.0000000), wk =   0.0277778
        k(   58) = (   0.3989767   0.4158275   0.0000000), wk =   0.0277778
        k(   59) = (   0.3989042   0.5082344   0.0000000), wk =   0.0277778
        k(   60) = (   0.3988317   0.6006413   0.0000000), wk =   0.0277778
        k(   61) = (   0.3987591   0.6930483   0.0000000), wk =   0.0277778
        k(   62) = (   0.3995569  -0.3234280   0.0000000), wk =   0.0277778
        k(   63) = (   0.3994844  -0.2310211   0.0000000), wk =   0.0277778
        k(   64) = (   0.3994119  -0.1386142   0.0000000), wk =   0.0277778
        k(   65) = (   0.3993393  -0.0462072   0.0000000), wk =   0.0277778
        k(   66) = (   0.3992668   0.0461997   0.0000000), wk =   0.0277778
        k(   67) = (   0.3991943   0.1386067   0.0000000), wk =   0.0277778
        k(   68) = (  -0.4789461  -0.2772163   0.0000000), wk =   0.0138889
        k(   69) = (  -0.4790186  -0.1848094   0.0000000), wk =   0.0277778
        k(   70) = (  -0.4790912  -0.0924024   0.0000000), wk =   0.0277778
        k(   71) = (  -0.4791637   0.0000045   0.0000000), wk =   0.0277778
        k(   72) = (  -0.4792362   0.0924114   0.0000000), wk =   0.0277778
        k(   73) = (  -0.4793088   0.1848184   0.0000000), wk =   0.0277778
        k(   74) = (  -0.4785109  -0.8316579   0.0000000), wk =   0.0138889

     Initial potential from superposition of free atoms

     starting charge   69.99841, renormalised to   70.00000

     negative rho (up, down):  1.349E-04 0.000E+00
     Starting wfcs are   46 randomized atomic wfcs

     Self-consistent Calculation

     iteration #  1     ecut=    70.00 Ry     beta= 0.70
     Davidson diagonalization with overlap
     ethr =  1.00E-02,  avg # of iterations =  2.0

     total energy              =   -1437.39781414 Ry
     estimated scf accuracy    <       1.65457971 Ry

[...]

     negative rho (up, down):  3.138E-06 0.000E+00

[...]

     WARNING: integrated charge=    70.00026743, expected=    70.00000000

[...]

     iteration #  7     ecut=    70.00 Ry     beta= 0.70
     Davidson diagonalization with overlap
     c_bands:  1 eigenvalues not converged
     ethr =  9.48E-05,  avg # of iterations =  2.6
     Minimization algorithm failed to find Fermi energy: reverting to bisection
     Possible cause: smearing is larger than the electronic band-gap.

[...]

     iteration #  8     ecut=    70.00 Ry     beta= 0.70
     Davidson diagonalization with overlap
     ethr =  7.63E-05,  avg # of iterations =  2.2
     Minimization algorithm failed to find Fermi energy: reverting to bisection
     Possible cause: smearing is larger than the electronic band-gap.

[...]

     WARNING: integrated charge=    70.00001477, expected=    70.00000000

[...]

     total energy              =   -1438.35616909 Ry
     estimated scf accuracy    <          1.9E-12 Ry

     iteration # 27     ecut=    70.00 Ry     beta= 0.70
     Davidson diagonalization with overlap
     ethr =  1.00E-13,  avg # of iterations =  1.2

[...]

     End of self-consistent calculation

          k = 0.0000 0.0000 0.0000 ( 16001 PWs)   bands (ev):

   -69.7072 -68.9105 -36.4036 -35.9368 -35.9357 -35.5199 -35.1021 -35.0989
   -21.4259 -21.2868 -21.2777 -21.2770 -21.2575 -21.2550 -21.2324 -20.6429
   -20.5310 -20.5188 -20.5187 -20.5072 -20.5069 -20.4524 -20.0755 -19.1761
   -13.1460  -8.3425  -6.6564  -6.6333  -5.6359  -5.1194  -5.1023  -3.1300
    -3.1144  -2.7784  -0.2667  -0.2387   0.3683   1.6646   1.6819   2.2281
     3.5629   3.6117

          k =-0.0001 0.0924 0.0000 ( 15995 PWs)   bands (ev):

[...]

          k = 0.3992 0.1386 0.0000 ( 15919 PWs)   bands (ev):

[...]

          k =-0.4785-0.8317 0.0000 ( 15918 PWs)   bands (ev):

   -69.6598 -68.8647 -36.7283 -36.2257 -36.1093 -35.8138 -35.4096 -35.2626
   -21.3495 -21.2807 -21.2790 -21.2642 -21.2584 -21.2562 -21.2518 -20.5822
   -20.5303 -20.5169 -20.5108 -20.4979 -20.4884 -20.4804 -19.6244 -18.7055
   -12.2108  -8.7202  -6.5186  -6.2691  -6.0731  -5.6134  -5.1457  -4.9688
    -3.3697  -3.0696  -1.7684   0.9703   2.7576   2.9308   3.5722   3.7300
     4.7423   4.9300

     the Fermi energy is    -0.2547 ev

!    total energy              =   -1438.35616909 Ry
     estimated scf accuracy    <          3.1E-13 Ry
     smearing contrib. (-TS)   =       0.00000065 Ry
     internal energy E=F+TS    =   -1438.35616973 Ry

     The total energy is F=E-TS. E is the sum of the following terms:
     one-electron contribution =  -14107.01698225 Ry
     hartree contribution      =    7084.40878327 Ry
     xc contribution           =    -153.69909396 Ry
     ewald contribution        =    5737.95112321 Ry

     convergence has been achieved in  27 iterations

     negative rho (up, down):  1.473E-04 0.000E+00

     Forces acting on atoms (cartesian axes, Ry/au):

     atom    1 type  2   force =    -0.00029581   -0.00012246   -0.00010689
     atom    2 type  1   force =     0.00006949   -0.00004360   -0.00000687
     atom    3 type  1   force =     0.00016684   -0.00018028    0.00005149
     atom    4 type  3   force =     0.00003544    0.00030416    0.00010124
     atom    5 type  3   force =     0.00002404    0.00004218   -0.00003897

     Total force =     0.000540     Total SCF correction =     0.000003

     Computing stress (Cartesian axis) and pressure

     negative rho (up, down):  1.473E-04 0.000E+00
          total   stress  (Ry/bohr**3)                   (kbar)     P=       -0.35
  -0.00000276  -0.00000090   0.00000015           -0.41       -0.13        0.02
  -0.00000090   0.00000222   0.00000052           -0.13        0.33        0.08
   0.00000015   0.00000052  -0.00000657            0.02        0.08       -0.97

     BFGS Geometry Optimization
     Energy error            =      0.0E+00 Ry
     Gradient error          =      3.0E-04 Ry/Bohr

     bfgs converged in   1 scf cycles and   0 bfgs steps
     (criteria: energy <  1.0E-04 Ry, force <  1.0E-03 Ry/Bohr)

     End of BFGS Geometry Optimization

     Final energy             =   -1438.3561690863 Ry
Begin final coordinates

ATOMIC_POSITIONS (alat)
C            -0.1376285000        0.0180317000        0.0193959000
Ta            0.3841511000        0.3192090000       -0.4303689000
Ta           -0.1376464000        0.6197159000        0.4272142000
O             0.3845753000        0.3202170000        0.8049305000
O            -0.1374362000        0.0185582000       -0.8211192000
End final coordinates

     Writing output data file /scratch/as3359/Ta2CO2_loop/Ta.save/

     General routines

     Parallel routines

   This run was terminated on:  10:13: 4  24Mar2022

   JOB DONE.