     Program PWSCF v.6.8 starts on 22Apr2022 at  4:33: 7

     R & G space division:  proc/nbgrp/npool/nimage =       2

     Waiting for input...
     Reading input from standard input

     Current dimensions of program PWSCF are:
     Max number of different atomic species (ntypx) = 10
     Max number of k-points (npk) =  40000
     Max angular momentum in pseudopotentials (lmaxx) =  4
     file Ta.pbesol-spfn-rrkjus_psl.1.0.0.UPF: wavefunction(s)  5S 5P renormalized
     file S.pbesol-nl-kjpaw_psl.1.0.0.UPF: wavefunction(s)  3S renormalized

     Subspace diagonalization in iterative solution of the eigenvalue problem:
     a serial algorithm will be used

     Using Slab Decomposition

     bravais-lattice index     =            0
     lattice parameter (alat)  =       5.5500  a.u.
     unit-cell volume          =    1699.0018 (a.u.)^3
     number of atoms/cell      =            4
     number of atomic types    =            3
     number of electrons       =        64.00
     number of Kohn-Sham states=           38
     kinetic-energy cutoff     =      70.0000  Ry
     charge density cutoff     =     700.0000  Ry
     scf convergence threshold =      1.0E-12
     mixing beta               =       0.7000
     number of iterations used =            8  plain     mixing
     Exchange-correlation= SLA  PW   PSX  PSC
                           (   1   4  10   8   0   0   0)

     celldm(1)=   5.550000  celldm(2)=   0.000000  celldm(3)=   0.000000
     celldm(4)=   0.000000  celldm(5)=   0.000000  celldm(6)=   0.000000

     crystal axes: (cart. coord. in units of alat)
               a(1) = (   1.070291  -0.003288   0.000000 )
               a(2) = (  -0.533526   0.930205   0.000000 )
               a(3) = (   0.000000   0.000000  10.000000 )

     reciprocal axes: (cart. coord. in units 2 pi/alat)
               b(1) = (  0.935974  0.536835  0.000000 )
               b(2) = (  0.003308  1.076929  0.000000 )
               b(3) = (  0.000000  0.000000  0.100000 )

     PseudoPot. # 1 for Ta read from file:
     /shared/home/as3359/pseudo/Ta.pbesol-spfn-rrkjus_psl.1.0.0.UPF
     MD5 check sum: f099565ffaca9b150a52e9412a28e20b
     Pseudo is Ultrasoft + core correction, Zval = 27.0
     Generated using &quot;atomic&quot; code by A. Dal Corso  v.6.3
     Using radial grid of 1273 points,  8 beta functions with:
                l(1) =   0
                l(2) =   0
                l(3) =   1
                l(4) =   1
                l(5) =   2
                l(6) =   2
                l(7) =   3
                l(8) =   3
     Q(r) pseudized with 0 coefficients

     PseudoPot. # 2 for C  read from file:
     /shared/home/as3359/pseudo/C.pbesol-n-rrkjus_psl.1.0.0.UPF
     MD5 check sum: 05995be603a8a7c99da3dc4413f31573
     Pseudo is Ultrasoft + core correction, Zval =  4.0
     Generated using &quot;atomic&quot; code by A. Dal Corso  v.6.3MaX
     Using radial grid of 1073 points,  4 beta functions with:
                l(1) =   0
                l(2) =   0
                l(3) =   1
                l(4) =   1
     Q(r) pseudized with 0 coefficients

     PseudoPot. # 3 for S  read from file:
     /shared/home/as3359/pseudo/S.pbesol-nl-kjpaw_psl.1.0.0.UPF
     MD5 check sum: bf3db50ec3f960682bbc396f1aadd1dd
     Pseudo is Projector augmented-wave + core cor, Zval =  6.0
     Generated using &quot;atomic&quot; code by A. Dal Corso  v.6.3
     Shape of augmentation charge: PSQ
     Using radial grid of 1151 points,  4 beta functions with:
                l(1) =   0
                l(2) =   0
                l(3) =   1
                l(4) =   1
     Q(r) pseudized with 0 coefficients

     atomic species   valence    mass     pseudopotential
        Ta            27.00   180.94788     Ta( 1.00)
        C              4.00    12.01070     C ( 1.00)
        S              6.00    32.06500     S ( 1.00)

     No symmetry found

   Cartesian axes

     site n.     atom                  positions (alat units)
         1           C   tau(   1) = (   0.0001541   0.0001295  -0.0002665  )
         2           Ta  tau(   2) = (   0.5365170   0.3085634  -0.3899267  )
         3           Ta  tau(   3) = (   0.0012366   0.6192060   0.4285633  )
         4           S   tau(   4) = (   0.5351086   0.3081437   0.9859537  )

     number of k points=    74  Marzari-Vanderbilt smearing, width (Ry)=  0.0010
                       cart. coord. in units 2pi/alat
        k(    1) = (   0.0000000   0.0000000   0.0000000), wk =   0.0138889
        k(    2) = (   0.0002757   0.0897441   0.0000000), wk =   0.0277778
        k(    3) = (   0.0005514   0.1794882   0.0000000), wk =   0.0277778
        k(    4) = (   0.0008270   0.2692322   0.0000000), wk =   0.0277778
        k(    5) = (   0.0011027   0.3589763   0.0000000), wk =   0.0277778
        k(    6) = (   0.0013784   0.4487204   0.0000000), wk =   0.0277778
        k(    7) = (  -0.0016541  -0.5384645   0.0000000), wk =   0.0138889
        k(    8) = (   0.0779979   0.0447362   0.0000000), wk =   0.0277778
        k(    9) = (   0.0782735   0.1344803   0.0000000), wk =   0.0277778
        k(   10) = (   0.0785492   0.2242244   0.0000000), wk =   0.0277778
        k(   11) = (   0.0788249   0.3139685   0.0000000), wk =   0.0277778
        k(   12) = (   0.0791006   0.4037125   0.0000000), wk =   0.0277778
        k(   13) = (   0.0793763   0.4934566   0.0000000), wk =   0.0277778
        k(   14) = (   0.0763438  -0.4937282   0.0000000), wk =   0.0277778
        k(   15) = (   0.0766195  -0.4039842   0.0000000), wk =   0.0277778
        k(   16) = (   0.0768951  -0.3142401   0.0000000), wk =   0.0277778
        k(   17) = (   0.0771708  -0.2244960   0.0000000), wk =   0.0277778
        k(   18) = (   0.0774465  -0.1347519   0.0000000), wk =   0.0277778
        k(   19) = (   0.0777222  -0.0450078   0.0000000), wk =   0.0277778
        k(   20) = (   0.1559957   0.0894725   0.0000000), wk =   0.0277778
        k(   21) = (   0.1562714   0.1792165   0.0000000), wk =   0.0277778
        k(   22) = (   0.1565471   0.2689606   0.0000000), wk =   0.0277778
        k(   23) = (   0.1568228   0.3587047   0.0000000), wk =   0.0277778
        k(   24) = (   0.1570984   0.4484488   0.0000000), wk =   0.0277778
        k(   25) = (   0.1573741   0.5381928   0.0000000), wk =   0.0277778
        k(   26) = (   0.1543416  -0.4489920   0.0000000), wk =   0.0277778
        k(   27) = (   0.1546173  -0.3592479   0.0000000), wk =   0.0277778
        k(   28) = (   0.1548930  -0.2695038   0.0000000), wk =   0.0277778
        k(   29) = (   0.1551687  -0.1797598   0.0000000), wk =   0.0277778
        k(   30) = (   0.1554444  -0.0900157   0.0000000), wk =   0.0277778
        k(   31) = (   0.1557200  -0.0002716   0.0000000), wk =   0.0277778
        k(   32) = (   0.2339936   0.1342087   0.0000000), wk =   0.0277778
        k(   33) = (   0.2342693   0.2239528   0.0000000), wk =   0.0277778
        k(   34) = (   0.2345449   0.3136969   0.0000000), wk =   0.0277778
        k(   35) = (   0.2348206   0.4034409   0.0000000), wk =   0.0277778
        k(   36) = (   0.2350963   0.4931850   0.0000000), wk =   0.0277778
        k(   37) = (   0.2353720   0.5829291   0.0000000), wk =   0.0277778
        k(   38) = (   0.2323395  -0.4042558   0.0000000), wk =   0.0277778
        k(   39) = (   0.2326152  -0.3145117   0.0000000), wk =   0.0277778
        k(   40) = (   0.2328909  -0.2247676   0.0000000), wk =   0.0277778
        k(   41) = (   0.2331665  -0.1350235   0.0000000), wk =   0.0277778
        k(   42) = (   0.2334422  -0.0452795   0.0000000), wk =   0.0277778
        k(   43) = (   0.2337179   0.0444646   0.0000000), wk =   0.0277778
        k(   44) = (   0.3119914   0.1789449   0.0000000), wk =   0.0277778
        k(   45) = (   0.3122671   0.2686890   0.0000000), wk =   0.0277778
        k(   46) = (   0.3125428   0.3584331   0.0000000), wk =   0.0277778
        k(   47) = (   0.3128185   0.4481772   0.0000000), wk =   0.0277778
        k(   48) = (   0.3130942   0.5379212   0.0000000), wk =   0.0277778
        k(   49) = (   0.3133698   0.6276653   0.0000000), wk =   0.0277778
        k(   50) = (   0.3103374  -0.3595195   0.0000000), wk =   0.0277778
        k(   51) = (   0.3106130  -0.2697755   0.0000000), wk =   0.0277778
        k(   52) = (   0.3108887  -0.1800314   0.0000000), wk =   0.0277778
        k(   53) = (   0.3111644  -0.0902873   0.0000000), wk =   0.0277778
        k(   54) = (   0.3114401  -0.0005432   0.0000000), wk =   0.0277778
        k(   55) = (   0.3117158   0.0892009   0.0000000), wk =   0.0277778
        k(   56) = (   0.3899893   0.2236812   0.0000000), wk =   0.0277778
        k(   57) = (   0.3902650   0.3134252   0.0000000), wk =   0.0277778
        k(   58) = (   0.3905407   0.4031693   0.0000000), wk =   0.0277778
        k(   59) = (   0.3908163   0.4929134   0.0000000), wk =   0.0277778
        k(   60) = (   0.3910920   0.5826575   0.0000000), wk =   0.0277778
        k(   61) = (   0.3913677   0.6724015   0.0000000), wk =   0.0277778
        k(   62) = (   0.3883352  -0.3147833   0.0000000), wk =   0.0277778
        k(   63) = (   0.3886109  -0.2250392   0.0000000), wk =   0.0277778
        k(   64) = (   0.3888866  -0.1352951   0.0000000), wk =   0.0277778
        k(   65) = (   0.3891623  -0.0455511   0.0000000), wk =   0.0277778
        k(   66) = (   0.3894379   0.0441930   0.0000000), wk =   0.0277778
        k(   67) = (   0.3897136   0.1339371   0.0000000), wk =   0.0277778
        k(   68) = (  -0.4679872  -0.2684174   0.0000000), wk =   0.0138889
        k(   69) = (  -0.4677115  -0.1786733   0.0000000), wk =   0.0277778
        k(   70) = (  -0.4674358  -0.0889292   0.0000000), wk =   0.0277778
        k(   71) = (  -0.4671601   0.0008148   0.0000000), wk =   0.0277778
        k(   72) = (  -0.4668844   0.0905589   0.0000000), wk =   0.0277778
        k(   73) = (  -0.4666088   0.1803030   0.0000000), wk =   0.0277778
        k(   74) = (  -0.4696413  -0.8068819   0.0000000), wk =   0.0138889

     Initial potential from superposition of free atoms

     starting charge   63.99838, renormalised to   64.00000

     negative rho (up, down):  5.051E-05 0.000E+00
     Starting wfcs are   42 randomized atomic wfcs
     Checking if some PAW data can be deallocated...

     Self-consistent Calculation

     iteration #  1     ecut=    70.00 Ry     beta= 0.70
     Davidson diagonalization with overlap
     ethr =  1.00E-02,  avg # of iterations =  2.5

     negative rho (up, down):  7.848E-06 0.000E+00

     total energy              =   -1437.72959409 Ry
     estimated scf accuracy    <       1.17582341 Ry

[...]

     iteration #  6     ecut=    70.00 Ry     beta= 0.70
     Davidson diagonalization with overlap
     ethr =  1.30E-04,  avg # of iterations =  3.4
     Minimization algorithm failed to find Fermi energy: reverting to bisection
     Possible cause: smearing is larger than the electronic band-gap.

[...]

     total energy              =   -1438.47519651 Ry
     estimated scf accuracy    <          1.8E-12 Ry

     iteration # 22     ecut=    70.00 Ry     beta= 0.70
     Davidson diagonalization with overlap
     ethr =  1.00E-13,  avg # of iterations =  1.0

[...]

     End of self-consistent calculation

          k = 0.0000 0.0000 0.0000 ( 16709 PWs)   bands (ev):

   -68.0019 -67.8760 -34.8581 -34.3333 -34.3223 -34.3213 -34.0562 -34.0526
   -19.6538 -19.6252 -19.6251 -19.6207 -19.6040 -19.6034 -19.5988 -19.5851
   -19.5474 -19.5449 -19.5226 -19.5225 -19.5074 -19.4579 -14.3067 -12.1201
    -7.1272  -4.2469  -4.2222  -3.2531  -0.9896  -0.9628  -0.6317  -0.1220
     0.1762   0.1992   2.7642   2.7921   3.0825   3.0905

[...]

          k =-0.0017-0.5385 0.0000 ( 16826 PWs)   bands (ev):

[...]

          k = 0.3897 0.1339 0.0000 ( 16782 PWs)   bands (ev):

[...]

          k =-0.4696-0.8069 0.0000 ( 16830 PWs)   bands (ev):

   -67.9670 -67.8492 -34.9309 -34.7093 -34.4668 -34.4647 -34.3427 -34.1614
   -19.6368 -19.6332 -19.6215 -19.6137 -19.6088 -19.6043 -19.6002 -19.5717
   -19.5641 -19.5514 -19.5251 -19.5097 -19.4869 -19.4758 -12.5009 -11.0346
    -7.1703  -4.9418  -4.4063  -4.1982  -3.5188  -2.0450  -1.5285   0.3388
     2.1793   2.7436   3.5107   4.1559   4.2589   4.6707

     the Fermi energy is     0.2015 ev

!    total energy              =   -1438.47519651 Ry
     estimated scf accuracy    <          8.2E-13 Ry
     smearing contrib. (-TS)   =      -0.00002090 Ry
     internal energy E=F+TS    =   -1438.47517561 Ry

     The total energy is F=E-TS. E is the sum of the following terms:
     one-electron contribution =  -11692.76526121 Ry
     hartree contribution      =    5877.34298272 Ry
     xc contribution           =    -143.95495968 Ry
     ewald contribution        =    4565.78312073 Ry
     one-center paw contrib.   =     -44.88105816 Ry

     convergence has been achieved in  22 iterations

     negative rho (up, down):  6.510E-05 0.000E+00

     Forces acting on atoms (cartesian axes, Ry/au):

     atom    1 type  2   force =     0.00036225    0.00039641   -0.00084892
     atom    2 type  1   force =    -0.00057933   -0.00037157    0.00014372
     atom    3 type  1   force =     0.00022340    0.00068777    0.00037714
     atom    4 type  3   force =    -0.00000632   -0.00071261    0.00032806

     Total force =     0.001669     Total SCF correction =     0.000011

     Computing stress (Cartesian axis) and pressure

     negative rho (up, down):  6.510E-05 0.000E+00
          total   stress  (Ry/bohr**3)                   (kbar)     P=        0.45
   0.00000762   0.00000025   0.00000103            1.12        0.04        0.15
   0.00000025   0.00000398  -0.00000086            0.04        0.59       -0.13
   0.00000103  -0.00000086  -0.00000237            0.15       -0.13       -0.35

     Writing output data file /scratch/as3359/Ta2CO_loop/Ta.save/

     General routines

     Parallel routines

   This run was terminated on:   4:39:42  22Apr2022

   JOB DONE.