     Program PWSCF v.6.8 starts on 21Apr2022 at 21:18:38

     R & G space division:  proc/nbgrp/npool/nimage =       2

     Reading input from Ta2CS.vcrelax.in

     Current dimensions of program PWSCF are:
     Max number of different atomic species (ntypx) = 10
     Max number of k-points (npk) =  40000
     Max angular momentum in pseudopotentials (lmaxx) =  4
     file Ta.pbesol-spfn-rrkjus_psl.1.0.0.UPF: wavefunction(s)  5S 5P renormalized
     file S.pbesol-nl-kjpaw_psl.1.0.0.UPF: wavefunction(s)  3S renormalized

     Subspace diagonalization in iterative solution of the eigenvalue problem:
     a serial algorithm will be used

     Using Slab Decomposition

     bravais-lattice index     =            0
     lattice parameter (alat)  =       5.5500  a.u.
     unit-cell volume          =    1549.0441 (a.u.)^3
     number of atoms/cell      =            4
     number of atomic types    =            3
     number of electrons       =        64.00
     number of Kohn-Sham states=           38
     kinetic-energy cutoff     =      70.0000  Ry
     charge density cutoff     =     700.0000  Ry
     scf convergence threshold =      1.0E-12
     mixing beta               =       0.7000
     number of iterations used =            8  plain     mixing
     energy convergence thresh.=      1.0E-04
     force convergence thresh. =      1.0E-03
     press convergence thresh. =      5.0E-01
     Exchange-correlation= SLA  PW   PSX  PSC
                           (   1   4  10   8   0   0   0)
     nstep                     =           50

     celldm(1)=   5.550000  celldm(2)=   0.000000  celldm(3)=   0.000000
     celldm(4)=   0.000000  celldm(5)=   0.000000  celldm(6)=   0.000000

     crystal axes: (cart. coord. in units of alat)
               a(1) = (   1.023061   0.000071   0.000000 )
               a(2) = (  -0.511470   0.885658   0.000000 )
               a(3) = (   0.000000   0.000000  10.000000 )

     reciprocal axes: (cart. coord. in units 2 pi/alat)
               b(1) = (  0.977420  0.564462  0.000000 )
               b(2) = ( -0.000078  1.129060  0.000000 )
               b(3) = (  0.000000  0.000000  0.100000 )

     PseudoPot. # 1 for Ta read from file:
     /shared/home/as3359/pseudo/Ta.pbesol-spfn-rrkjus_psl.1.0.0.UPF
     MD5 check sum: f099565ffaca9b150a52e9412a28e20b
     Pseudo is Ultrasoft + core correction, Zval = 27.0
     Generated using &quot;atomic&quot; code by A. Dal Corso  v.6.3
     Using radial grid of 1273 points,  8 beta functions with:
                l(1) =   0
                l(2) =   0
                l(3) =   1
                l(4) =   1
                l(5) =   2
                l(6) =   2
                l(7) =   3
                l(8) =   3
     Q(r) pseudized with 0 coefficients

     PseudoPot. # 2 for C  read from file:
     /shared/home/as3359/pseudo/C.pbesol-n-rrkjus_psl.1.0.0.UPF
     MD5 check sum: 05995be603a8a7c99da3dc4413f31573
     Pseudo is Ultrasoft + core correction, Zval =  4.0
     Generated using &quot;atomic&quot; code by A. Dal Corso  v.6.3MaX
     Using radial grid of 1073 points,  4 beta functions with:
                l(1) =   0
                l(2) =   0
                l(3) =   1
                l(4) =   1
     Q(r) pseudized with 0 coefficients

     PseudoPot. # 3 for S  read from file:
     /shared/home/as3359/pseudo/S.pbesol-nl-kjpaw_psl.1.0.0.UPF
     MD5 check sum: bf3db50ec3f960682bbc396f1aadd1dd
     Pseudo is Projector augmented-wave + core cor, Zval =  6.0
     Generated using &quot;atomic&quot; code by A. Dal Corso  v.6.3
     Shape of augmentation charge: PSQ
     Using radial grid of 1151 points,  4 beta functions with:
                l(1) =   0
                l(2) =   0
                l(3) =   1
                l(4) =   1
     Q(r) pseudized with 0 coefficients

     atomic species   valence    mass     pseudopotential
        Ta            27.00   180.94788     Ta( 1.00)
        C              4.00    12.01070     C ( 1.00)
        S              6.00    32.06500     S ( 1.00)

     No symmetry found

   Cartesian axes

     site n.     atom                  positions (alat units)
         1           C   tau(   1) = (   0.0000000   0.0000000   0.0000000  )
         2           Ta  tau(   2) = (   0.3772709   0.2651957  -0.5000000  )
         3           Ta  tau(   3) = (  -0.3080629   0.5337799   0.5000000  )
         4           S   tau(   4) = (   0.1110709   0.2669083   1.0000000  )

     number of k points=    74  Marzari-Vanderbilt smearing, width (Ry)=  0.0010
                       cart. coord. in units 2pi/alat
        k(    1) = (   0.0000000   0.0000000   0.0000000), wk =   0.0138889
        k(    2) = (  -0.0000065   0.0940883   0.0000000), wk =   0.0277778
        k(    3) = (  -0.0000130   0.1881766   0.0000000), wk =   0.0277778
        k(    4) = (  -0.0000195   0.2822649   0.0000000), wk =   0.0277778
        k(    5) = (  -0.0000260   0.3763532   0.0000000), wk =   0.0277778
        k(    6) = (  -0.0000325   0.4704415   0.0000000), wk =   0.0277778
        k(    7) = (   0.0000390  -0.5645298   0.0000000), wk =   0.0138889
        k(    8) = (   0.0814516   0.0470385   0.0000000), wk =   0.0277778
        k(    9) = (   0.0814451   0.1411268   0.0000000), wk =   0.0277778
        k(   10) = (   0.0814386   0.2352151   0.0000000), wk =   0.0277778
        k(   11) = (   0.0814322   0.3293034   0.0000000), wk =   0.0277778
        k(   12) = (   0.0814257   0.4233917   0.0000000), wk =   0.0277778
        k(   13) = (   0.0814192   0.5174800   0.0000000), wk =   0.0277778
        k(   14) = (   0.0814906  -0.5174912   0.0000000), wk =   0.0277778
        k(   15) = (   0.0814841  -0.4234030   0.0000000), wk =   0.0277778
        k(   16) = (   0.0814776  -0.3293147   0.0000000), wk =   0.0277778
        k(   17) = (   0.0814711  -0.2352264   0.0000000), wk =   0.0277778
        k(   18) = (   0.0814646  -0.1411381   0.0000000), wk =   0.0277778
        k(   19) = (   0.0814581  -0.0470498   0.0000000), wk =   0.0277778
        k(   20) = (   0.1629033   0.0940771   0.0000000), wk =   0.0277778
        k(   21) = (   0.1628968   0.1881653   0.0000000), wk =   0.0277778
        k(   22) = (   0.1628903   0.2822536   0.0000000), wk =   0.0277778
        k(   23) = (   0.1628838   0.3763419   0.0000000), wk =   0.0277778
        k(   24) = (   0.1628773   0.4704302   0.0000000), wk =   0.0277778
        k(   25) = (   0.1628708   0.5645185   0.0000000), wk =   0.0277778
        k(   26) = (   0.1629422  -0.4704527   0.0000000), wk =   0.0277778
        k(   27) = (   0.1629357  -0.3763644   0.0000000), wk =   0.0277778
        k(   28) = (   0.1629292  -0.2822761   0.0000000), wk =   0.0277778
        k(   29) = (   0.1629227  -0.1881878   0.0000000), wk =   0.0277778
        k(   30) = (   0.1629162  -0.0940995   0.0000000), wk =   0.0277778
        k(   31) = (   0.1629098  -0.0000112   0.0000000), wk =   0.0277778
        k(   32) = (   0.2443549   0.1411156   0.0000000), wk =   0.0277778
        k(   33) = (   0.2443484   0.2352039   0.0000000), wk =   0.0277778
        k(   34) = (   0.2443419   0.3292922   0.0000000), wk =   0.0277778
        k(   35) = (   0.2443354   0.4233805   0.0000000), wk =   0.0277778
        k(   36) = (   0.2443289   0.5174688   0.0000000), wk =   0.0277778
        k(   37) = (   0.2443224   0.6115571   0.0000000), wk =   0.0277778
        k(   38) = (   0.2443938  -0.4234142   0.0000000), wk =   0.0277778
        k(   39) = (   0.2443873  -0.3293259   0.0000000), wk =   0.0277778
        k(   40) = (   0.2443809  -0.2352376   0.0000000), wk =   0.0277778
        k(   41) = (   0.2443744  -0.1411493   0.0000000), wk =   0.0277778
        k(   42) = (   0.2443679  -0.0470610   0.0000000), wk =   0.0277778
        k(   43) = (   0.2443614   0.0470273   0.0000000), wk =   0.0277778
        k(   44) = (   0.3258065   0.1881541   0.0000000), wk =   0.0277778
        k(   45) = (   0.3258000   0.2822424   0.0000000), wk =   0.0277778
        k(   46) = (   0.3257935   0.3763307   0.0000000), wk =   0.0277778
        k(   47) = (   0.3257870   0.4704190   0.0000000), wk =   0.0277778
        k(   48) = (   0.3257806   0.5645073   0.0000000), wk =   0.0277778
        k(   49) = (   0.3257741   0.6585956   0.0000000), wk =   0.0277778
        k(   50) = (   0.3258455  -0.3763757   0.0000000), wk =   0.0277778
        k(   51) = (   0.3258390  -0.2822874   0.0000000), wk =   0.0277778
        k(   52) = (   0.3258325  -0.1881991   0.0000000), wk =   0.0277778
        k(   53) = (   0.3258260  -0.0941108   0.0000000), wk =   0.0277778
        k(   54) = (   0.3258195  -0.0000225   0.0000000), wk =   0.0277778
        k(   55) = (   0.3258130   0.0940658   0.0000000), wk =   0.0277778
        k(   56) = (   0.4072581   0.2351926   0.0000000), wk =   0.0277778
        k(   57) = (   0.4072517   0.3292809   0.0000000), wk =   0.0277778
        k(   58) = (   0.4072452   0.4233692   0.0000000), wk =   0.0277778
        k(   59) = (   0.4072387   0.5174575   0.0000000), wk =   0.0277778
        k(   60) = (   0.4072322   0.6115458   0.0000000), wk =   0.0277778
        k(   61) = (   0.4072257   0.7056341   0.0000000), wk =   0.0277778
        k(   62) = (   0.4072971  -0.3293371   0.0000000), wk =   0.0277778
        k(   63) = (   0.4072906  -0.2352488   0.0000000), wk =   0.0277778
        k(   64) = (   0.4072841  -0.1411606   0.0000000), wk =   0.0277778
        k(   65) = (   0.4072776  -0.0470723   0.0000000), wk =   0.0277778
        k(   66) = (   0.4072711   0.0470160   0.0000000), wk =   0.0277778
        k(   67) = (   0.4072646   0.1411043   0.0000000), wk =   0.0277778
        k(   68) = (  -0.4887098  -0.2822312   0.0000000), wk =   0.0138889
        k(   69) = (  -0.4887163  -0.1881429   0.0000000), wk =   0.0277778
        k(   70) = (  -0.4887228  -0.0940546   0.0000000), wk =   0.0277778
        k(   71) = (  -0.4887293   0.0000337   0.0000000), wk =   0.0277778
        k(   72) = (  -0.4887357   0.0941220   0.0000000), wk =   0.0277778
        k(   73) = (  -0.4887422   0.1882103   0.0000000), wk =   0.0277778
        k(   74) = (  -0.4886708  -0.8467609   0.0000000), wk =   0.0138889

     Initial potential from superposition of free atoms

     starting charge   63.99838, renormalised to   64.00000

     negative rho (up, down):  4.744E-05 0.000E+00
     Starting wfcs are   42 randomized atomic wfcs
     Checking if some PAW data can be deallocated...

     Self-consistent Calculation

     iteration #  1     ecut=    70.00 Ry     beta= 0.70
     Davidson diagonalization with overlap
     ethr =  1.00E-02,  avg # of iterations =  2.3

     negative rho (up, down):  1.050E-05 0.000E+00

     total energy              =   -1436.91500881 Ry
     estimated scf accuracy    <       1.78406715 Ry

[...]

     WARNING: integrated charge=    64.00170822, expected=    64.00000000

[...]

     End of self-consistent calculation

          k = 0.0000 0.0000 0.0000 ( 15285 PWs)   bands (ev):

   -67.0978 -67.0654 -34.1285 -33.7247 -33.4531 -33.3355 -33.1303 -33.0955
   -18.7641 -18.7486 -18.7327 -18.7112 -18.6995 -18.6830 -18.6797 -18.6529
[...]
     new conv_thr            =            1.0E-14 Ry

     new unit-cell volume =   1699.00176 a.u.^3 (   251.76609 Ang^3 )
     density =      2.67761 g/cm^3

[...]

ATOMIC_POSITIONS (crystal)
C             0.0000000000        0.0000000000        0.0000000000    0   0   0
Ta            0.6680342227        0.3342024326       -0.0390011361
Ta            0.3334736269        0.6666873345        0.0428407210
S             0.6663585734        0.3337900381        0.0985928092

     Writing output data file /scratch/as3359/Ta2CO_loop/Ta.save/
     NEW-OLD atomic charge density approx. for the potential

     negative rho (up, down):  1.415E-04 0.000E+00
     extrapolated charge   63.92373, renormalised to   64.00000

[...]

     Energy error            =      2.8E-05 Ry
     Gradient error          =      9.3E-04 Ry/Bohr
     Cell gradient error     =      4.6E-01 kbar

     bfgs converged in  41 scf cycles and  40 bfgs steps
     (criteria: energy <  1.0E-04 Ry, force <  1.0E-03Ry/Bohr, cell <  5.0E-01kbar)

     End of BFGS Geometry Optimization

     Final enthalpy           =   -1438.4741339917 Ry

     File /scratch/as3359/Ta2CO_loop/Ta.bfgs deleted, as requested
Begin final coordinates
     new unit-cell volume =   1699.00176 a.u.^3 (   251.76609 Ang^3 )
     density =      2.67761 g/cm^3

CELL_PARAMETERS (alat=  5.55000000)
   1.070291113  -0.003287788   0.000000000
  -0.533525931   0.930205308   0.000000000
   0.000000000   0.000000000  10.000000000

ATOMIC_POSITIONS (crystal)
C             0.0000000000        0.0000000000        0.0000000000    0   0   0
Ta            0.6680342227        0.3342024326       -0.0390011361
Ta            0.3334736269        0.6666873345        0.0428407210
S             0.6663585734        0.3337900381        0.0985928092
End final coordinates

     Writing output data file /scratch/as3359/Ta2CO_loop/Ta.save/

     Final scf calculation at the relaxed structure.
     The G-vectors are recalculated for the final unit cell
     Results may differ from those at the preceding step.

     Using Slab Decomposition

     bravais-lattice index     =            0
     lattice parameter (alat)  =       5.5500  a.u.
     unit-cell volume          =    1699.0018 (a.u.)^3
     number of atoms/cell      =            4
     number of atomic types    =            3
     number of electrons       =        64.00
     number of Kohn-Sham states=           38
     kinetic-energy cutoff     =      70.0000  Ry
     charge density cutoff     =     700.0000  Ry
     scf convergence threshold =      1.0E-14
     mixing beta               =       0.7000
     number of iterations used =            8  plain     mixing
     press convergence thresh. =      5.0E-01
     Exchange-correlation= SLA  PW   PSX  PSC
                           (   1   4  10   8   0   0   0)

     celldm(1)=   5.550000  celldm(2)=   0.000000  celldm(3)=   0.000000
     celldm(4)=   0.000000  celldm(5)=   0.000000  celldm(6)=   0.000000

     crystal axes: (cart. coord. in units of alat)
               a(1) = (   1.070291  -0.003288   0.000000 )
               a(2) = (  -0.533526   0.930205   0.000000 )
               a(3) = (   0.000000   0.000000  10.000000 )

     reciprocal axes: (cart. coord. in units 2 pi/alat)
               b(1) = (  0.935974  0.536835  0.000000 )
               b(2) = (  0.003308  1.076929  0.000000 )
               b(3) = (  0.000000  0.000000  0.100000 )

     PseudoPot. # 1 for Ta read from file:
     /shared/home/as3359/pseudo/Ta.pbesol-spfn-rrkjus_psl.1.0.0.UPF
     MD5 check sum: f099565ffaca9b150a52e9412a28e20b
     Pseudo is Ultrasoft + core correction, Zval = 27.0
     Generated using &quot;atomic&quot; code by A. Dal Corso  v.6.3
     Using radial grid of 1273 points,  8 beta functions with:
                l(1) =   0
                l(2) =   0
                l(3) =   1
                l(4) =   1
                l(5) =   2
                l(6) =   2
                l(7) =   3
                l(8) =   3
     Q(r) pseudized with 0 coefficients

     PseudoPot. # 2 for C  read from file:
     /shared/home/as3359/pseudo/C.pbesol-n-rrkjus_psl.1.0.0.UPF
     MD5 check sum: 05995be603a8a7c99da3dc4413f31573
     Pseudo is Ultrasoft + core correction, Zval =  4.0
     Generated using &quot;atomic&quot; code by A. Dal Corso  v.6.3MaX
     Using radial grid of 1073 points,  4 beta functions with:
                l(1) =   0
                l(2) =   0
                l(3) =   1
                l(4) =   1
     Q(r) pseudized with 0 coefficients

     PseudoPot. # 3 for S  read from file:
     /shared/home/as3359/pseudo/S.pbesol-nl-kjpaw_psl.1.0.0.UPF
     MD5 check sum: bf3db50ec3f960682bbc396f1aadd1dd
     Pseudo is Projector augmented-wave + core cor, Zval =  6.0
     Generated using &quot;atomic&quot; code by A. Dal Corso  v.6.3
     Shape of augmentation charge: PSQ
     Using radial grid of 1151 points,  4 beta functions with:
                l(1) =   0
                l(2) =   0
                l(3) =   1
                l(4) =   1
     Q(r) pseudized with 0 coefficients

     atomic species   valence    mass     pseudopotential
        Ta            27.00   180.94788     Ta( 1.00)
        C              4.00    12.01070     C ( 1.00)
        S              6.00    32.06500     S ( 1.00)

     No symmetry found

   Cartesian axes

     site n.     atom                  positions (alat units)
         1           C   tau(   1) = (   0.0000000   0.0000000   0.0000000  )
         2           Ta  tau(   2) = (   0.5366854   0.3086805  -0.3900114  )
         3           Ta  tau(   3) = (   0.0012189   0.6190597   0.4284072  )
         4           S   tau(   4) = (   0.5351120   0.3083024   0.9859281  )

     number of k points=    74  Marzari-Vanderbilt smearing, width (Ry)=  0.0010
                       cart. coord. in units 2pi/alat
        k(    1) = (   0.0000000   0.0000000   0.0000000), wk =   0.0138889
        k(    2) = (   0.0002757   0.0897441   0.0000000), wk =   0.0277778
        k(    3) = (   0.0005514   0.1794882   0.0000000), wk =   0.0277778
        k(    4) = (   0.0008270   0.2692322   0.0000000), wk =   0.0277778
        k(    5) = (   0.0011027   0.3589763   0.0000000), wk =   0.0277778
        k(    6) = (   0.0013784   0.4487204   0.0000000), wk =   0.0277778
        k(    7) = (  -0.0016541  -0.5384645   0.0000000), wk =   0.0138889
        k(    8) = (   0.0779979   0.0447362   0.0000000), wk =   0.0277778
        k(    9) = (   0.0782735   0.1344803   0.0000000), wk =   0.0277778
        k(   10) = (   0.0785492   0.2242244   0.0000000), wk =   0.0277778
        k(   11) = (   0.0788249   0.3139685   0.0000000), wk =   0.0277778
        k(   12) = (   0.0791006   0.4037125   0.0000000), wk =   0.0277778
        k(   13) = (   0.0793763   0.4934566   0.0000000), wk =   0.0277778
        k(   14) = (   0.0763438  -0.4937282   0.0000000), wk =   0.0277778
        k(   15) = (   0.0766195  -0.4039842   0.0000000), wk =   0.0277778
        k(   16) = (   0.0768951  -0.3142401   0.0000000), wk =   0.0277778
        k(   17) = (   0.0771708  -0.2244960   0.0000000), wk =   0.0277778
        k(   18) = (   0.0774465  -0.1347519   0.0000000), wk =   0.0277778
        k(   19) = (   0.0777222  -0.0450078   0.0000000), wk =   0.0277778
        k(   20) = (   0.1559957   0.0894725   0.0000000), wk =   0.0277778
        k(   21) = (   0.1562714   0.1792165   0.0000000), wk =   0.0277778
        k(   22) = (   0.1565471   0.2689606   0.0000000), wk =   0.0277778
        k(   23) = (   0.1568228   0.3587047   0.0000000), wk =   0.0277778
        k(   24) = (   0.1570984   0.4484488   0.0000000), wk =   0.0277778
        k(   25) = (   0.1573741   0.5381928   0.0000000), wk =   0.0277778
        k(   26) = (   0.1543416  -0.4489920   0.0000000), wk =   0.0277778
        k(   27) = (   0.1546173  -0.3592479   0.0000000), wk =   0.0277778
        k(   28) = (   0.1548930  -0.2695038   0.0000000), wk =   0.0277778
        k(   29) = (   0.1551687  -0.1797598   0.0000000), wk =   0.0277778
        k(   30) = (   0.1554444  -0.0900157   0.0000000), wk =   0.0277778
        k(   31) = (   0.1557200  -0.0002716   0.0000000), wk =   0.0277778
        k(   32) = (   0.2339936   0.1342087   0.0000000), wk =   0.0277778
        k(   33) = (   0.2342693   0.2239528   0.0000000), wk =   0.0277778
        k(   34) = (   0.2345449   0.3136969   0.0000000), wk =   0.0277778
        k(   35) = (   0.2348206   0.4034409   0.0000000), wk =   0.0277778
        k(   36) = (   0.2350963   0.4931850   0.0000000), wk =   0.0277778
        k(   37) = (   0.2353720   0.5829291   0.0000000), wk =   0.0277778
        k(   38) = (   0.2323395  -0.4042558   0.0000000), wk =   0.0277778
        k(   39) = (   0.2326152  -0.3145117   0.0000000), wk =   0.0277778
        k(   40) = (   0.2328909  -0.2247676   0.0000000), wk =   0.0277778
        k(   41) = (   0.2331665  -0.1350235   0.0000000), wk =   0.0277778
        k(   42) = (   0.2334422  -0.0452795   0.0000000), wk =   0.0277778
        k(   43) = (   0.2337179   0.0444646   0.0000000), wk =   0.0277778
        k(   44) = (   0.3119914   0.1789449   0.0000000), wk =   0.0277778
        k(   45) = (   0.3122671   0.2686890   0.0000000), wk =   0.0277778
        k(   46) = (   0.3125428   0.3584331   0.0000000), wk =   0.0277778
        k(   47) = (   0.3128185   0.4481772   0.0000000), wk =   0.0277778
        k(   48) = (   0.3130942   0.5379212   0.0000000), wk =   0.0277778
        k(   49) = (   0.3133698   0.6276653   0.0000000), wk =   0.0277778
        k(   50) = (   0.3103374  -0.3595195   0.0000000), wk =   0.0277778
        k(   51) = (   0.3106130  -0.2697755   0.0000000), wk =   0.0277778
        k(   52) = (   0.3108887  -0.1800314   0.0000000), wk =   0.0277778
        k(   53) = (   0.3111644  -0.0902873   0.0000000), wk =   0.0277778
        k(   54) = (   0.3114401  -0.0005432   0.0000000), wk =   0.0277778
        k(   55) = (   0.3117158   0.0892009   0.0000000), wk =   0.0277778
        k(   56) = (   0.3899893   0.2236812   0.0000000), wk =   0.0277778
        k(   57) = (   0.3902650   0.3134252   0.0000000), wk =   0.0277778
        k(   58) = (   0.3905407   0.4031693   0.0000000), wk =   0.0277778
        k(   59) = (   0.3908163   0.4929134   0.0000000), wk =   0.0277778
        k(   60) = (   0.3910920   0.5826575   0.0000000), wk =   0.0277778
        k(   61) = (   0.3913677   0.6724015   0.0000000), wk =   0.0277778
        k(   62) = (   0.3883352  -0.3147833   0.0000000), wk =   0.0277778
        k(   63) = (   0.3886109  -0.2250392   0.0000000), wk =   0.0277778
        k(   64) = (   0.3888866  -0.1352951   0.0000000), wk =   0.0277778
        k(   65) = (   0.3891623  -0.0455511   0.0000000), wk =   0.0277778
        k(   66) = (   0.3894379   0.0441930   0.0000000), wk =   0.0277778
        k(   67) = (   0.3897136   0.1339371   0.0000000), wk =   0.0277778
        k(   68) = (  -0.4679872  -0.2684174   0.0000000), wk =   0.0138889
        k(   69) = (  -0.4677115  -0.1786733   0.0000000), wk =   0.0277778
        k(   70) = (  -0.4674358  -0.0889292   0.0000000), wk =   0.0277778
        k(   71) = (  -0.4671601   0.0008148   0.0000000), wk =   0.0277778
        k(   72) = (  -0.4668844   0.0905589   0.0000000), wk =   0.0277778
        k(   73) = (  -0.4666088   0.1803030   0.0000000), wk =   0.0277778
        k(   74) = (  -0.4696413  -0.8068819   0.0000000), wk =   0.0138889

     Initial potential from superposition of free atoms

     starting charge   63.99838, renormalised to   64.00000

     negative rho (up, down):  5.053E-05 0.000E+00
     Starting wfcs are   42 randomized atomic wfcs
     Checking if some PAW data can be deallocated...

     Self-consistent Calculation

     iteration #  1     ecut=    70.00 Ry     beta= 0.70
     Davidson diagonalization with overlap
     c_bands:  3 eigenvalues not converged
     c_bands:  1 eigenvalues not converged
     c_bands:  1 eigenvalues not converged
     c_bands:  1 eigenvalues not converged
     c_bands:  1 eigenvalues not converged
     c_bands:  1 eigenvalues not converged
     c_bands:  1 eigenvalues not converged
     c_bands:  1 eigenvalues not converged
     c_bands:  1 eigenvalues not converged
     c_bands:  1 eigenvalues not converged
     c_bands:  1 eigenvalues not converged
     c_bands:  1 eigenvalues not converged
     c_bands:  1 eigenvalues not converged
     c_bands:  2 eigenvalues not converged
     c_bands:  2 eigenvalues not converged
     c_bands:  1 eigenvalues not converged
     c_bands:  1 eigenvalues not converged
     c_bands:  1 eigenvalues not converged
     c_bands:  1 eigenvalues not converged
     c_bands:  1 eigenvalues not converged
     c_bands:  1 eigenvalues not converged
     c_bands:  2 eigenvalues not converged
     c_bands:  1 eigenvalues not converged
     c_bands:  1 eigenvalues not converged
     c_bands:  2 eigenvalues not converged
     c_bands:  1 eigenvalues not converged
     c_bands:  1 eigenvalues not converged
     c_bands:  1 eigenvalues not converged
     c_bands:  1 eigenvalues not converged
     c_bands:  1 eigenvalues not converged
     c_bands:  2 eigenvalues not converged
     c_bands:  1 eigenvalues not converged
     c_bands:  1 eigenvalues not converged
     c_bands:  1 eigenvalues not converged
     c_bands:  2 eigenvalues not converged
     c_bands:  1 eigenvalues not converged
     c_bands:  1 eigenvalues not converged
     c_bands:  1 eigenvalues not converged
     c_bands:  1 eigenvalues not converged
     c_bands:  1 eigenvalues not converged
     c_bands:  2 eigenvalues not converged
     c_bands:  1 eigenvalues not converged
     c_bands:  1 eigenvalues not converged
     c_bands:  2 eigenvalues not converged
     c_bands:  1 eigenvalues not converged
     c_bands:  1 eigenvalues not converged
     c_bands:  1 eigenvalues not converged
     c_bands:  1 eigenvalues not converged
     c_bands:  1 eigenvalues not converged
     c_bands:  2 eigenvalues not converged
     c_bands:  2 eigenvalues not converged
     ethr =  1.00E-06,  avg # of iterations = 19.1

[...]

     WARNING: integrated charge=    64.00001636, expected=    64.00000000

[...]

     total energy              =   -1438.47519078 Ry
     estimated scf accuracy    <          4.6E-14 Ry

     iteration # 26     ecut=    70.00 Ry     beta= 0.70
     Davidson diagonalization with overlap
     ethr =  1.00E-13,  avg # of iterations =  1.0

[...]

     End of self-consistent calculation

[...]

          k = 0.3897 0.1339 0.0000 ( 16782 PWs)   bands (ev):

[...]

          k =-0.4696-0.8069 0.0000 ( 16830 PWs)   bands (ev):

   -67.9667 -67.8501 -34.9310 -34.7095 -34.4671 -34.4649 -34.3428 -34.1618
   -19.6364 -19.6329 -19.6211 -19.6132 -19.6084 -19.6040 -19.5998 -19.5727
   -19.5651 -19.5524 -19.5261 -19.5108 -19.4878 -19.4768 -12.5003 -11.0347
    -7.1706  -4.9405  -4.4067  -4.1988  -3.5163  -2.0480  -1.5260   0.3391
     2.1795   2.7423   3.5083   4.1558   4.2585   4.6711

     the Fermi energy is     0.2016 ev

!    total energy              =   -1438.47519078 Ry
     estimated scf accuracy    <          3.8E-15 Ry
     smearing contrib. (-TS)   =      -0.00002093 Ry
     internal energy E=F+TS    =   -1438.47516986 Ry

     The total energy is F=E-TS. E is the sum of the following terms:
     one-electron contribution =  -11692.90689421 Ry
     hartree contribution      =    5877.41336215 Ry
     xc contribution           =    -143.95479017 Ry
     ewald contribution        =    4565.85419716 Ry
     one-center paw contrib.   =     -44.88104480 Ry

     convergence has been achieved in  26 iterations

     negative rho (up, down):  6.514E-05 0.000E+00

     Forces acting on atoms (cartesian axes, Ry/au):

     atom    1 type  2   force =     0.00085514    0.00071869   -0.00147882
     atom    2 type  1   force =    -0.00093449   -0.00065014    0.00047346
     atom    3 type  1   force =     0.00009843    0.00081211    0.00086277
     atom    4 type  3   force =    -0.00001907   -0.00088067    0.00014260

     Total force =     0.001931     Total SCF correction =     0.000001

     Computing stress (Cartesian axis) and pressure

     negative rho (up, down):  6.514E-05 0.000E+00
          total   stress  (Ry/bohr**3)                   (kbar)     P=        0.43
   0.00000785   0.00000020   0.00000127            1.16        0.03        0.19
   0.00000020   0.00000362  -0.00000087            0.03        0.53       -0.13
   0.00000127  -0.00000087  -0.00000271            0.19       -0.13       -0.40

     Writing output data file /scratch/as3359/Ta2CO_loop/Ta.save/

     General routines

     Parallel routines

   This run was terminated on:   4:16:37  22Apr2022

   JOB DONE.