     Program PWSCF v.6.8 starts on  7Apr2022 at 14:24:57

     R & G space division:  proc/nbgrp/npool/nimage =       2

     Reading input from Ta2C.scf.10.in
Warning: card  &CELL ignored
Warning: card     CELL_DYNAMICS='BFGS' ignored
Warning: card  / ignored

     Current dimensions of program PWSCF are:
     Max number of different atomic species (ntypx) = 10
     Max number of k-points (npk) =  40000
     Max angular momentum in pseudopotentials (lmaxx) =  4
     Message from routine iosys:
     restart disabled: needed files not found
     file Ta.pbesol-spfn-rrkjus_psl.1.0.0.UPF: wavefunction(s)  5S 5P renormalized

     Subspace diagonalization in iterative solution of the eigenvalue problem:
     a serial algorithm will be used

     Using Slab Decomposition

     bravais-lattice index     =            0
     lattice parameter (alat)  =       5.5500  a.u.
     unit-cell volume          =    1588.7844 (a.u.)^3
     number of atoms/cell      =            3
     number of atomic types    =            2
     number of electrons       =        58.00
     number of Kohn-Sham states=           29
     kinetic-energy cutoff     =     150.0000  Ry
     charge density cutoff     =     600.0000  Ry
     scf convergence threshold =      1.0E-12
     mixing beta               =       0.7000
     number of iterations used =            8  plain     mixing
     Exchange-correlation= PBESOL
                           (   1   4  10   8   0   0   0)

     celldm(1)=   5.550000  celldm(2)=   0.000000  celldm(3)=   0.000000
     celldm(4)=   0.000000  celldm(5)=   0.000000  celldm(6)=   0.000000

     crystal axes: (cart. coord. in units of alat)
               a(1) = (   1.034114   0.000203   0.000000 )
               a(2) = (  -0.516207   0.898604   0.000000 )
               a(3) = (   0.000000   0.000000  10.000000 )

     reciprocal axes: (cart. coord. in units 2 pi/alat)
               b(1) = (  0.966902  0.555441  0.000000 )
               b(2) = ( -0.000219  1.112711  0.000000 )
               b(3) = (  0.000000  0.000000  0.100000 )

     PseudoPot. # 1 for Ta read from file:
     /shared/home/as3359/pseudo/Ta.pbesol-spfn-rrkjus_psl.1.0.0.UPF
     MD5 check sum: f099565ffaca9b150a52e9412a28e20b
     Pseudo is Ultrasoft + core correction, Zval = 27.0
     Generated using &quot;atomic&quot; code by A. Dal Corso  v.6.3
     Using radial grid of 1273 points,  8 beta functions with:
                l(1) =   0
                l(2) =   0
                l(3) =   1
                l(4) =   1
                l(5) =   2
                l(6) =   2
                l(7) =   3
                l(8) =   3
     Q(r) pseudized with 0 coefficients

     PseudoPot. # 2 for C  read from file:
     /shared/home/as3359/pseudo/C.pbesol-n-rrkjus_psl.1.0.0.UPF
     MD5 check sum: 05995be603a8a7c99da3dc4413f31573
     Pseudo is Ultrasoft + core correction, Zval =  4.0
     Generated using &quot;atomic&quot; code by A. Dal Corso  v.6.3MaX
     Using radial grid of 1073 points,  4 beta functions with:
                l(1) =   0
                l(2) =   0
                l(3) =   1
                l(4) =   1
     Q(r) pseudized with 0 coefficients

     atomic species   valence    mass     pseudopotential
        Ta            27.00   180.94788     Ta( 1.00)
        C              4.00    12.01070     C ( 1.00)

     No symmetry found

   Cartesian axes

     site n.     atom                  positions (alat units)
         1           C   tau(   1) = (   0.0000000   0.0000000   0.0000000  )
         2           Ta  tau(   2) = (   0.5174615   0.3004190  -0.4127129  )
         3           Ta  tau(   3) = (   0.0007158   0.5986355   0.4125272  )

     number of k points=    52
                       cart. coord. in units 2pi/alat
        k(    1) = (   0.0000000   0.0000000   0.0000000), wk =   0.0200000
        k(    2) = (  -0.0000219   0.1112711   0.0000000), wk =   0.0400000
        k(    3) = (  -0.0000437   0.2225422   0.0000000), wk =   0.0400000
        k(    4) = (  -0.0000656   0.3338133   0.0000000), wk =   0.0400000
        k(    5) = (  -0.0000874   0.4450844   0.0000000), wk =   0.0400000
        k(    6) = (   0.0001093  -0.5563556   0.0000000), wk =   0.0200000
        k(    7) = (   0.0966902   0.0555441   0.0000000), wk =   0.0400000
        k(    8) = (   0.0966684   0.1668152   0.0000000), wk =   0.0400000
        k(    9) = (   0.0966465   0.2780863   0.0000000), wk =   0.0400000
        k(   10) = (   0.0966246   0.3893574   0.0000000), wk =   0.0400000
        k(   11) = (   0.0966028   0.5006285   0.0000000), wk =   0.0400000
        k(   12) = (   0.0967995  -0.5008115   0.0000000), wk =   0.0400000
        k(   13) = (   0.0967777  -0.3895404   0.0000000), wk =   0.0400000
        k(   14) = (   0.0967558  -0.2782692   0.0000000), wk =   0.0400000
        k(   15) = (   0.0967339  -0.1669981   0.0000000), wk =   0.0400000
        k(   16) = (   0.0967121  -0.0557270   0.0000000), wk =   0.0400000
        k(   17) = (   0.1933804   0.1110882   0.0000000), wk =   0.0400000
        k(   18) = (   0.1933586   0.2223593   0.0000000), wk =   0.0400000
        k(   19) = (   0.1933367   0.3336304   0.0000000), wk =   0.0400000
        k(   20) = (   0.1933149   0.4449015   0.0000000), wk =   0.0400000
        k(   21) = (   0.1932930   0.5561726   0.0000000), wk =   0.0400000
        k(   22) = (   0.1934897  -0.4452674   0.0000000), wk =   0.0400000
        k(   23) = (   0.1934679  -0.3339963   0.0000000), wk =   0.0400000
        k(   24) = (   0.1934460  -0.2227252   0.0000000), wk =   0.0400000
        k(   25) = (   0.1934242  -0.1114540   0.0000000), wk =   0.0400000
        k(   26) = (   0.1934023  -0.0001829   0.0000000), wk =   0.0400000
        k(   27) = (   0.2900707   0.1666323   0.0000000), wk =   0.0400000
        k(   28) = (   0.2900488   0.2779034   0.0000000), wk =   0.0400000
        k(   29) = (   0.2900269   0.3891745   0.0000000), wk =   0.0400000
        k(   30) = (   0.2900051   0.5004456   0.0000000), wk =   0.0400000
        k(   31) = (   0.2899832   0.6117167   0.0000000), wk =   0.0400000
        k(   32) = (   0.2901800  -0.3897233   0.0000000), wk =   0.0400000
        k(   33) = (   0.2901581  -0.2784522   0.0000000), wk =   0.0400000
        k(   34) = (   0.2901362  -0.1671811   0.0000000), wk =   0.0400000
        k(   35) = (   0.2901144  -0.0559099   0.0000000), wk =   0.0400000
        k(   36) = (   0.2900925   0.0553612   0.0000000), wk =   0.0400000
        k(   37) = (   0.3867609   0.2221764   0.0000000), wk =   0.0400000
        k(   38) = (   0.3867390   0.3334475   0.0000000), wk =   0.0400000
        k(   39) = (   0.3867172   0.4447186   0.0000000), wk =   0.0400000
        k(   40) = (   0.3866953   0.5559897   0.0000000), wk =   0.0400000
        k(   41) = (   0.3866734   0.6672608   0.0000000), wk =   0.0400000
        k(   42) = (   0.3868702  -0.3341792   0.0000000), wk =   0.0400000
        k(   43) = (   0.3868483  -0.2229081   0.0000000), wk =   0.0400000
        k(   44) = (   0.3868265  -0.1116370   0.0000000), wk =   0.0400000
        k(   45) = (   0.3868046  -0.0003659   0.0000000), wk =   0.0400000
        k(   46) = (   0.3867827   0.1109053   0.0000000), wk =   0.0400000
        k(   47) = (  -0.4834511  -0.2777205   0.0000000), wk =   0.0200000
        k(   48) = (  -0.4834730  -0.1664494   0.0000000), wk =   0.0400000
        k(   49) = (  -0.4834948  -0.0551782   0.0000000), wk =   0.0400000
        k(   50) = (  -0.4835167   0.0560929   0.0000000), wk =   0.0400000
        k(   51) = (  -0.4835385   0.1673640   0.0000000), wk =   0.0400000
        k(   52) = (  -0.4833418  -0.8340760   0.0000000), wk =   0.0200000

     Initial potential from superposition of free atoms

     starting charge   57.99842, renormalised to   58.00000

     negative rho (up, down):  9.930E-05 0.000E+00
     Message from routine qexsd_readschema :
     xml data file /scratch/as3359/Ta2C_ct_kpts/Ta2C.save/data-file-schema.xml not fo
     Cannot read wfcs: file not found
     Starting wfcs are   38 randomized atomic wfcs

     Self-consistent Calculation

     iteration #  1     ecut=   150.00 Ry     beta= 0.70
     Davidson diagonalization with overlap
     ethr =  1.00E-05,  avg # of iterations = 12.3

     negative rho (up, down):  9.437E-05 0.000E+00

     total energy              =   -1372.47004370 Ry
     estimated scf accuracy    <       1.29911312 Ry

[...]

     iteration # 20     ecut=   150.00 Ry     beta= 0.70
     Davidson diagonalization with overlap
     c_bands:  1 eigenvalues not converged
     c_bands:  1 eigenvalues not converged
     ethr =  1.08E-11,  avg # of iterations =  6.3

[...]

     total energy              =   -1373.25115332 Ry
     estimated scf accuracy    <          1.4E-12 Ry

     iteration # 34     ecut=   150.00 Ry     beta= 0.70
     Davidson diagonalization with overlap
     ethr =  1.00E-13,  avg # of iterations =  1.0

[...]

     End of self-consistent calculation

          k = 0.0000 0.0000 0.0000 ( 49405 PWs)   bands (ev):

   -68.1843 -68.1367 -35.2267 -34.6238 -34.2905 -34.2868 -34.2255 -34.2204
   -19.8454 -19.8317 -19.8041 -19.8040 -19.7971 -19.7970 -19.7697 -19.7694
   -19.7608 -19.7607 -19.7479 -19.7424 -19.6812 -19.6797 -13.1745  -7.5640
    -4.2873  -4.2442  -1.8444  -0.8516  -0.6631

          k =-0.0000 0.1113 0.0000 ( 49311 PWs)   bands (ev):

[...]

          k = 0.3868 0.1109 0.0000 ( 49318 PWs)   bands (ev):

[...]

          k =-0.4833-0.8341 0.0000 ( 49292 PWs)   bands (ev):

   -68.1206 -68.1050 -35.1063 -35.0630 -34.7435 -34.6339 -34.5051 -34.3454
   -19.8320 -19.8187 -19.8160 -19.8108 -19.8082 -19.7923 -19.7807 -19.7645
   -19.7582 -19.7476 -19.7211 -19.7175 -19.7036 -19.7021 -11.7555  -7.1630
    -4.8725  -4.3559  -3.5188   0.1687   0.1969

     highest occupied level (ev):     0.1969

!    total energy              =   -1373.25115332 Ry
     estimated scf accuracy    <          5.8E-13 Ry

     The total energy is the sum of the following terms:
     one-electron contribution =  -10892.32730497 Ry
     hartree contribution      =    5474.72324174 Ry
     xc contribution           =    -138.78580981 Ry
     ewald contribution        =    4183.13871972 Ry

     convergence has been achieved in  34 iterations

     negative rho (up, down):  1.043E-04 0.000E+00

     Forces acting on atoms (cartesian axes, Ry/au):

     atom    1 type  2   force =     0.00030436    0.00027770   -0.00017841
     atom    2 type  1   force =    -0.00041539    0.00006543    0.00260760
     atom    3 type  1   force =     0.00011103   -0.00034313   -0.00242918

     Total force =     0.003607     Total SCF correction =     0.000010

     Computing stress (Cartesian axis) and pressure

     negative rho (up, down):  1.043E-04 0.000E+00
          total   stress  (Ry/bohr**3)                   (kbar)     P=        5.48
   0.00006654  -0.00000249   0.00000076            9.79       -0.37        0.11
  -0.00000249   0.00005324  -0.00000059           -0.37        7.83       -0.09
   0.00000076  -0.00000059  -0.00000795            0.11       -0.09       -1.17

     Writing output data file /scratch/as3359/Ta2C_ct_kpts/Ta2C.save/

     General routines

     Parallel routines

   This run was terminated on:  14:45:36   7Apr2022

   JOB DONE.