     Program PWSCF v.6.8 starts on  7Apr2022 at 14: 9:40

     R & G space division:  proc/nbgrp/npool/nimage =       2

     Reading input from Ta2C.scf.8.in
Warning: card  &CELL ignored
Warning: card     CELL_DYNAMICS='BFGS' ignored
Warning: card  / ignored

     Current dimensions of program PWSCF are:
     Max number of different atomic species (ntypx) = 10
     Max number of k-points (npk) =  40000
     Max angular momentum in pseudopotentials (lmaxx) =  4
     file Ta.pbesol-spfn-rrkjus_psl.1.0.0.UPF: wavefunction(s)  5S 5P renormalized

     Subspace diagonalization in iterative solution of the eigenvalue problem:
     a serial algorithm will be used

     Using Slab Decomposition

     bravais-lattice index     =            0
     lattice parameter (alat)  =       5.5500  a.u.
     unit-cell volume          =    1588.7844 (a.u.)^3
     number of atoms/cell      =            3
     number of atomic types    =            2
     number of electrons       =        58.00
     number of Kohn-Sham states=           29
     kinetic-energy cutoff     =     150.0000  Ry
     charge density cutoff     =     600.0000  Ry
     scf convergence threshold =      1.0E-12
     mixing beta               =       0.7000
     number of iterations used =            8  plain     mixing
     Exchange-correlation= PBESOL
                           (   1   4  10   8   0   0   0)

     celldm(1)=   5.550000  celldm(2)=   0.000000  celldm(3)=   0.000000
     celldm(4)=   0.000000  celldm(5)=   0.000000  celldm(6)=   0.000000

     crystal axes: (cart. coord. in units of alat)
               a(1) = (   1.034114   0.000203   0.000000 )
               a(2) = (  -0.516207   0.898604   0.000000 )
               a(3) = (   0.000000   0.000000  10.000000 )

     reciprocal axes: (cart. coord. in units 2 pi/alat)
               b(1) = (  0.966902  0.555441  0.000000 )
               b(2) = ( -0.000219  1.112711  0.000000 )
               b(3) = (  0.000000  0.000000  0.100000 )

     PseudoPot. # 1 for Ta read from file:
     /shared/home/as3359/pseudo/Ta.pbesol-spfn-rrkjus_psl.1.0.0.UPF
     MD5 check sum: f099565ffaca9b150a52e9412a28e20b
     Pseudo is Ultrasoft + core correction, Zval = 27.0
     Generated using &quot;atomic&quot; code by A. Dal Corso  v.6.3
     Using radial grid of 1273 points,  8 beta functions with:
                l(1) =   0
                l(2) =   0
                l(3) =   1
                l(4) =   1
                l(5) =   2
                l(6) =   2
                l(7) =   3
                l(8) =   3
     Q(r) pseudized with 0 coefficients

     PseudoPot. # 2 for C  read from file:
     /shared/home/as3359/pseudo/C.pbesol-n-rrkjus_psl.1.0.0.UPF
     MD5 check sum: 05995be603a8a7c99da3dc4413f31573
     Pseudo is Ultrasoft + core correction, Zval =  4.0
     Generated using &quot;atomic&quot; code by A. Dal Corso  v.6.3MaX
     Using radial grid of 1073 points,  4 beta functions with:
                l(1) =   0
                l(2) =   0
                l(3) =   1
                l(4) =   1
     Q(r) pseudized with 0 coefficients

     atomic species   valence    mass     pseudopotential
        Ta            27.00   180.94788     Ta( 1.00)
        C              4.00    12.01070     C ( 1.00)

     No symmetry found

   Cartesian axes

     site n.     atom                  positions (alat units)
         1           C   tau(   1) = (   0.0000000   0.0000000   0.0000000  )
         2           Ta  tau(   2) = (   0.5174615   0.3004190  -0.4127129  )
         3           Ta  tau(   3) = (   0.0007158   0.5986355   0.4125272  )

     number of k points=    34
                       cart. coord. in units 2pi/alat
        k(    1) = (   0.0000000   0.0000000   0.0000000), wk =   0.0312500
        k(    2) = (  -0.0000273   0.1390889   0.0000000), wk =   0.0625000
        k(    3) = (  -0.0000547   0.2781778   0.0000000), wk =   0.0625000
        k(    4) = (  -0.0000820   0.4172667   0.0000000), wk =   0.0625000
        k(    5) = (   0.0001093  -0.5563556   0.0000000), wk =   0.0312500
        k(    6) = (   0.1208628   0.0694301   0.0000000), wk =   0.0625000
        k(    7) = (   0.1208355   0.2085190   0.0000000), wk =   0.0625000
        k(    8) = (   0.1208081   0.3476079   0.0000000), wk =   0.0625000
        k(    9) = (   0.1207808   0.4866968   0.0000000), wk =   0.0625000
        k(   10) = (   0.1209721  -0.4869254   0.0000000), wk =   0.0625000
        k(   11) = (   0.1209448  -0.3478366   0.0000000), wk =   0.0625000
        k(   12) = (   0.1209174  -0.2087477   0.0000000), wk =   0.0625000
        k(   13) = (   0.1208901  -0.0696588   0.0000000), wk =   0.0625000
        k(   14) = (   0.2417256   0.1388602   0.0000000), wk =   0.0625000
        k(   15) = (   0.2416982   0.2779491   0.0000000), wk =   0.0625000
        k(   16) = (   0.2416709   0.4170380   0.0000000), wk =   0.0625000
        k(   17) = (   0.2416436   0.5561269   0.0000000), wk =   0.0625000
        k(   18) = (   0.2418349  -0.4174953   0.0000000), wk =   0.0625000
        k(   19) = (   0.2418075  -0.2784064   0.0000000), wk =   0.0625000
        k(   20) = (   0.2417802  -0.1393175   0.0000000), wk =   0.0625000
        k(   21) = (   0.2417529  -0.0002287   0.0000000), wk =   0.0625000
        k(   22) = (   0.3625883   0.2082903   0.0000000), wk =   0.0625000
        k(   23) = (   0.3625610   0.3473792   0.0000000), wk =   0.0625000
        k(   24) = (   0.3625337   0.4864681   0.0000000), wk =   0.0625000
        k(   25) = (   0.3625064   0.6255570   0.0000000), wk =   0.0625000
        k(   26) = (   0.3626976  -0.3480652   0.0000000), wk =   0.0625000
        k(   27) = (   0.3626703  -0.2089763   0.0000000), wk =   0.0625000
        k(   28) = (   0.3626430  -0.0698874   0.0000000), wk =   0.0625000
        k(   29) = (   0.3626157   0.0692015   0.0000000), wk =   0.0625000
        k(   30) = (  -0.4834511  -0.2777205   0.0000000), wk =   0.0312500
        k(   31) = (  -0.4834784  -0.1386316   0.0000000), wk =   0.0625000
        k(   32) = (  -0.4835058   0.0004573   0.0000000), wk =   0.0625000
        k(   33) = (  -0.4835331   0.1395462   0.0000000), wk =   0.0625000
        k(   34) = (  -0.4833418  -0.8340760   0.0000000), wk =   0.0312500

     Atomic positions and unit cell read from directory:
     /scratch/as3359/Ta2C_ct_kpts/Ta2C.save/
     Message from routine qexsd_readschema :
     xml data file /scratch/as3359/Ta2C_ct_kpts/Ta2C.save/data-file-schema.xml not fo
     Nothing found: using input atomic positions and unit cell

     Cannot read rho : file not found

     Initial potential from superposition of free atoms

     starting charge   57.99842, renormalised to   58.00000

     negative rho (up, down):  9.930E-05 0.000E+00
     Message from routine qexsd_readschema :
     xml data file /scratch/as3359/Ta2C_ct_kpts/Ta2C.save/data-file-schema.xml not fo
     Cannot read wfcs: file not found
     Starting wfcs are   38 randomized atomic wfcs

     Self-consistent Calculation

     iteration #  1     ecut=   150.00 Ry     beta= 0.70
     Davidson diagonalization with overlap
     ethr =  1.00E-05,  avg # of iterations = 12.4

     negative rho (up, down):  9.447E-05 0.000E+00

     total energy              =   -1372.46948461 Ry
     estimated scf accuracy    <       1.29951030 Ry

[...]

     total energy              =   -1373.25237798 Ry
     estimated scf accuracy    <          3.9E-12 Ry

     iteration # 39     ecut=   150.00 Ry     beta= 0.70
     Davidson diagonalization with overlap
     ethr =  1.00E-13,  avg # of iterations =  1.2

[...]

     End of self-consistent calculation

          k = 0.0000 0.0000 0.0000 ( 49405 PWs)   bands (ev):

   -68.2167 -68.1690 -35.2569 -34.6538 -34.3229 -34.3185 -34.2579 -34.2520
   -19.8770 -19.8633 -19.8360 -19.8357 -19.8290 -19.8288 -19.8017 -19.8011
   -19.7927 -19.7927 -19.7803 -19.7748 -19.7137 -19.7122 -13.2008  -7.5877
    -4.3151  -4.2718  -1.8630  -0.8593  -0.6779

          k =-0.0000 0.1391 0.0000 ( 49287 PWs)   bands (ev):

[...]

          k = 0.3626 0.0692 0.0000 ( 49288 PWs)   bands (ev):

[...]

          k =-0.4833-0.8341 0.0000 ( 49292 PWs)   bands (ev):

   -68.1530 -68.1374 -35.1375 -35.0939 -34.7742 -34.6643 -34.5374 -34.3777
   -19.8638 -19.8503 -19.8476 -19.8426 -19.8398 -19.8241 -19.8124 -19.7964
   -19.7902 -19.7796 -19.7536 -19.7500 -19.7360 -19.7345 -11.7814  -7.1915
    -4.8969  -4.3840  -3.5472   0.1525   0.1797

     highest occupied level (ev):     0.1797

!    total energy              =   -1373.25237798 Ry
     estimated scf accuracy    <          2.4E-13 Ry

     The total energy is the sum of the following terms:
     one-electron contribution =  -10892.20128661 Ry
     hartree contribution      =    5474.59434159 Ry
     xc contribution           =    -138.78415269 Ry
     ewald contribution        =    4183.13871972 Ry

     convergence has been achieved in  39 iterations

     negative rho (up, down):  1.047E-04 0.000E+00

     Forces acting on atoms (cartesian axes, Ry/au):

     atom    1 type  2   force =     0.00031351    0.00028523   -0.00018609
     atom    2 type  1   force =    -0.00029103   -0.00040693    0.00233596
     atom    3 type  1   force =    -0.00002248    0.00012169   -0.00214987

     Total force =     0.003216     Total SCF correction =     0.000007

     Computing stress (Cartesian axis) and pressure

     negative rho (up, down):  1.047E-04 0.000E+00
          total   stress  (Ry/bohr**3)                   (kbar)     P=        5.54
   0.00006806  -0.00000283   0.00000039           10.01       -0.42        0.06
  -0.00000283   0.00005206   0.00000076           -0.42        7.66        0.11
   0.00000039   0.00000076  -0.00000715            0.06        0.11       -1.05

     Writing output data file /scratch/as3359/Ta2C_ct_kpts/Ta2C.save/

     General routines

     Parallel routines

   This run was terminated on:  14:24:56   7Apr2022

   JOB DONE.