     Program PWSCF v.6.8 starts on 21Apr2022 at 17:54:33

     R & G space division:  proc/nbgrp/npool/nimage =       2

     Reading input from Ta2CH.vcrelax.in

     Current dimensions of program PWSCF are:
     Max number of different atomic species (ntypx) = 10
     Max number of k-points (npk) =  40000
     Max angular momentum in pseudopotentials (lmaxx) =  4
     file Ta.pbesol-spfn-rrkjus_psl.1.0.0.UPF: wavefunction(s)  5S 5P renormalized
     Message from routine setup:
     using ibrav=0 with symmetry is DISCOURAGED, use correct ibrav instead

     Subspace diagonalization in iterative solution of the eigenvalue problem:
     a serial algorithm will be used

     Using Slab Decomposition

     bravais-lattice index     =            0
     lattice parameter (alat)  =       5.5500  a.u.
     unit-cell volume          =    1603.2166 (a.u.)^3
     number of atoms/cell      =            4
     number of atomic types    =            3
     number of electrons       =        59.00
     number of Kohn-Sham states=           36
     kinetic-energy cutoff     =      70.0000  Ry
     charge density cutoff     =     700.0000  Ry
     scf convergence threshold =      1.0E-12
     mixing beta               =       0.7000
     number of iterations used =            8  plain     mixing
     energy convergence thresh.=      1.0E-04
     force convergence thresh. =      1.0E-03
     press convergence thresh. =      5.0E-01
     Exchange-correlation= PBESOL
                           (   1   4  10   8   0   0   0)
     nstep                     =           50

     celldm(1)=   5.550000  celldm(2)=   0.000000  celldm(3)=   0.000000
     celldm(4)=   0.000000  celldm(5)=   0.000000  celldm(6)=   0.000000

     crystal axes: (cart. coord. in units of alat)
               a(1) = (   1.040618   0.000000   0.000000 )
               a(2) = (  -0.520309   0.901202   0.000000 )
               a(3) = (   0.000000   0.000000  10.000000 )

     reciprocal axes: (cart. coord. in units 2 pi/alat)
               b(1) = (  0.960967  0.554815  0.000000 )
               b(2) = (  0.000000  1.109630  0.000000 )
               b(3) = (  0.000000  0.000000  0.100000 )

     PseudoPot. # 1 for Ta read from file:
     /shared/home/as3359/pseudo/Ta.pbesol-spfn-rrkjus_psl.1.0.0.UPF
     MD5 check sum: f099565ffaca9b150a52e9412a28e20b
     Pseudo is Ultrasoft + core correction, Zval = 27.0
     Generated using &quot;atomic&quot; code by A. Dal Corso  v.6.3
     Using radial grid of 1273 points,  8 beta functions with:
                l(1) =   0
                l(2) =   0
                l(3) =   1
                l(4) =   1
                l(5) =   2
                l(6) =   2
                l(7) =   3
                l(8) =   3
     Q(r) pseudized with 0 coefficients

     PseudoPot. # 2 for C  read from file:
     /shared/home/as3359/pseudo/C.pbesol-n-rrkjus_psl.1.0.0.UPF
     MD5 check sum: 05995be603a8a7c99da3dc4413f31573
     Pseudo is Ultrasoft + core correction, Zval =  4.0
     Generated using &quot;atomic&quot; code by A. Dal Corso  v.6.3MaX
     Using radial grid of 1073 points,  4 beta functions with:
                l(1) =   0
                l(2) =   0
                l(3) =   1
                l(4) =   1
     Q(r) pseudized with 0 coefficients

     PseudoPot. # 3 for H  read from file:
     /shared/home/as3359/pseudo/H.pbesol-rrkjus_psl.0.1.UPF
     MD5 check sum: 1dbb1a5c48b1283557b8117eb856a7ca
     Pseudo is Ultrasoft, Zval =  1.0
     Generated using "atomic" code by A. Dal Corso  v.5.0.2 svn rev. 9415
     Using radial grid of  929 points,  2 beta functions with:
                l(1) =   0
                l(2) =   0
     Q(r) pseudized with 0 coefficients

     atomic species   valence    mass     pseudopotential
        Ta            27.00   180.94788     Ta( 1.00)
        C              4.00    12.01070     C ( 1.00)
        H              1.00     1.00000     H ( 1.00)

      6 Sym. Ops. (no inversion) found

   Cartesian axes

     site n.     atom                  positions (alat units)
         1           C   tau(   1) = (   0.0000000   0.0000000   0.0000000  )
         2           Ta  tau(   2) = (   0.5203090   0.3004005  -0.4101496  )
         3           Ta  tau(   3) = (  -0.0000000   0.6008011   0.4101496  )
         4           H   tau(   4) = (  -0.0000000   0.6008011   0.9240391  )

     number of k points=    19  Marzari-Vanderbilt smearing, width (Ry)=  0.0010
                       cart. coord. in units 2pi/alat
        k(    1) = (   0.0000000   0.0000000   0.0000000), wk =   0.0138889
        k(    2) = (   0.0000000   0.0924691   0.0000000), wk =   0.0833333
        k(    3) = (   0.0000000   0.1849383   0.0000000), wk =   0.0833333
        k(    4) = (   0.0000000   0.2774074   0.0000000), wk =   0.0833333
        k(    5) = (   0.0000000   0.3698766   0.0000000), wk =   0.0833333
        k(    6) = (   0.0000000   0.4623457   0.0000000), wk =   0.0833333
        k(    7) = (   0.0000000  -0.5548148   0.0000000), wk =   0.0416667
        k(    8) = (   0.0800806   0.1387037   0.0000000), wk =   0.0833333
        k(    9) = (   0.0800806   0.2311728   0.0000000), wk =   0.1666667
        k(   10) = (   0.0800806   0.3236420   0.0000000), wk =   0.1666667
        k(   11) = (   0.0800806   0.4161111   0.0000000), wk =   0.1666667
        k(   12) = (   0.0800806   0.5085803   0.0000000), wk =   0.1666667
        k(   13) = (   0.1601612   0.2774074   0.0000000), wk =   0.0833333
        k(   14) = (   0.1601612   0.3698766   0.0000000), wk =   0.1666667
        k(   15) = (   0.1601612   0.4623457   0.0000000), wk =   0.1666667
        k(   16) = (   0.1601612   0.5548148   0.0000000), wk =   0.0833333
        k(   17) = (   0.2402419   0.4161111   0.0000000), wk =   0.0833333
        k(   18) = (   0.2402419   0.5085803   0.0000000), wk =   0.1666667
        k(   19) = (   0.3203225   0.5548148   0.0000000), wk =   0.0277778

     Initial potential from superposition of free atoms

     starting charge   58.99841, renormalised to   59.00000

     negative rho (up, down):  5.007E-05 0.000E+00
     Starting wfcs are   39 randomized atomic wfcs

     Self-consistent Calculation

     iteration #  1     ecut=    70.00 Ry     beta= 0.70
     Davidson diagonalization with overlap
     ethr =  1.00E-02,  avg # of iterations =  2.2

     negative rho (up, down):  1.785E-05 0.000E+00

     total energy              =   -1372.65451274 Ry
     estimated scf accuracy    <       2.32445763 Ry

[...]

     WARNING: integrated charge=    59.00175674, expected=    59.00000000

[...]

     iteration #  9     ecut=    70.00 Ry     beta= 0.70
     Davidson diagonalization with overlap
     ethr =  2.41E-05,  avg # of iterations =  7.3
     Minimization algorithm failed to find Fermi energy: reverting to bisection
     Possible cause: smearing is larger than the electronic band-gap.

[...]

     End of self-consistent calculation

          k = 0.0000 0.0000 0.0000 ( 15945 PWs)   bands (ev):

   -69.0774 -68.4969 -35.9324 -35.2066 -35.2066 -35.0693 -34.7985 -34.7985
   -20.7577 -20.7207 -20.7207 -20.7118 -20.7118 -20.6887 -20.6260 -20.1514
   -20.1053 -20.1053 -20.0845 -20.0618 -20.0376 -20.0376 -13.9877  -8.4421
    -5.1173  -5.1173  -4.7348  -2.6118  -1.6918  -0.9589  -0.9589   1.0536
     1.0536   2.1839   2.1839   2.6937

[...]

     the Fermi energy is    -1.1715 ev

!    total energy              =   -1374.33078563 Ry
     estimated scf accuracy    <          1.4E-13 Ry
     smearing contrib. (-TS)   =      -0.00002631 Ry
     internal energy E=F+TS    =   -1374.33075932 Ry

     The total energy is F=E-TS. E is the sum of the following terms:
     one-electron contribution =  -11063.55216565 Ry
     hartree contribution      =    5559.21894972 Ry
     xc contribution           =    -139.62305919 Ry
     ewald contribution        =    4269.62551580 Ry

     convergence has been achieved in  24 iterations

[...]

     Forces acting on atoms (cartesian axes, Ry/au):

     atom    1 type  2   force =     0.00000000   -0.00000000   -0.00968699
     atom    2 type  1   force =     0.00000000   -0.00000000   -0.03628953
     atom    3 type  1   force =     0.00000000   -0.00000000   -0.17635616
     atom    4 type  3   force =     0.00000000   -0.00000000    0.22233268

     Total force =     0.286095     Total SCF correction =     0.000002

     Computing stress (Cartesian axis) and pressure

     negative rho (up, down):  6.984E-05 0.000E+00
          total   stress  (Ry/bohr**3)                   (kbar)     P=       29.76
   0.00004943  -0.00000000   0.00000000            7.27       -0.00        0.00
  -0.00000000   0.00004943   0.00000000           -0.00        7.27        0.00
   0.00000000   0.00000000   0.00050804            0.00        0.00       74.73

     BFGS Geometry Optimization
     Energy error            =      0.0E+00 Ry
     Gradient error          =      2.2E-01 Ry/Bohr
     Cell gradient error     =      7.3E+00 kbar

     number of scf cycles    =   1
     number of bfgs steps    =   0

     enthalpy           new  =   -1374.3307856314 Ry

     new trust radius        =       0.2223326811 bohr
     new conv_thr            =            1.0E-12 Ry

     new unit-cell volume =   1607.18123 a.u.^3 (   238.15969 Ang^3 )
     density =      2.61399 g/cm^3

CELL_PARAMETERS (alat=  5.55000000)
   1.041903833  -0.000000000   0.000000000
  -0.520951916   0.902315187   0.000000000
   0.000000000   0.000000000  10.000000000

ATOMIC_POSITIONS (crystal)
C             0.0000000000        0.0000000000        0.0000000000    0   0   0
Ta            0.6666666670        0.3333333330       -0.0416688247
Ta            0.3333333330        0.6666666670        0.0378373707
H             0.3333333330        0.6666666670        0.0964099049

     Writing output data file /scratch/as3359/Ta2C_loop/Ta.save/
     NEW-OLD atomic charge density approx. for the potential

     negative rho (up, down):  6.071E-05 0.000E+00
     extrapolated charge   59.14554, renormalised to   59.00000

[...]

     iteration #  1     ecut=    70.00 Ry     beta= 0.70
     Davidson diagonalization with overlap
     c_bands:  1 eigenvalues not converged
     c_bands:  3 eigenvalues not converged
     c_bands:  2 eigenvalues not converged
     c_bands:  2 eigenvalues not converged
     c_bands:  4 eigenvalues not converged
     c_bands:  5 eigenvalues not converged
     c_bands:  5 eigenvalues not converged
     c_bands:  2 eigenvalues not converged
     c_bands:  4 eigenvalues not converged
     c_bands:  3 eigenvalues not converged
     c_bands:  4 eigenvalues not converged
     c_bands:  2 eigenvalues not converged
     c_bands:  2 eigenvalues not converged
     c_bands:  4 eigenvalues not converged
     c_bands:  4 eigenvalues not converged
     c_bands:  4 eigenvalues not converged
     c_bands:  3 eigenvalues not converged
     c_bands:  3 eigenvalues not converged
     ethr =  1.00E-06,  avg # of iterations = 20.0

[...]

          k =-0.0000-0.5541 0.0000 ( 15870 PWs)   bands (ev):

[...]

     Energy error            =      3.7E-02 Ry
     Gradient error          =      5.8E-02 Ry/Bohr
     Cell gradient error     =      1.4E+01 kbar

[...]

     enthalpy           old  =   -1374.3307856314 Ry
     enthalpy           new  =   -1374.3677829447 Ry

     CASE: enthalpy          _new < enthalpy          _old

[...]

     WARNING: integrated charge=    58.99999163, expected=    59.00000000

[...]

     number of scf cycles    =   9
     number of bfgs steps    =   8

     enthalpy           old  =   -1374.3826831548 Ry
     enthalpy           new  =   -1374.3827832965 Ry

     CASE: enthalpy          _new < enthalpy          _old

     new trust radius        =       0.0146711021 bohr
     new conv_thr            =            1.0E-14 Ry

     new unit-cell volume =   1604.33454 a.u.^3 (   237.73785 Ang^3 )
     density =      2.61863 g/cm^3

[...]

ATOMIC_POSITIONS (crystal)
C             0.0000000000        0.0000000000        0.0000000000    0   0   0
Ta            0.6666666670        0.3333333330       -0.0415602394
Ta            0.3333333330        0.6666666670        0.0426080640
H             0.3333333330        0.6666666670        0.1035968067

     Writing output data file /scratch/as3359/Ta2C_loop/Ta.save/
     NEW-OLD atomic charge density approx. for the potential

     negative rho (up, down):  7.110E-05 0.000E+00
     extrapolated charge   58.97507, renormalised to   59.00000

[...]

     iteration #  2     ecut=    70.00 Ry     beta= 0.70
     Davidson diagonalization with overlap
     ethr =  9.52E-06,  avg # of iterations = 10.2
     Minimization algorithm failed to find Fermi energy: reverting to bisection
     Possible cause: smearing is larger than the electronic band-gap.

[...]

     Energy error            =      2.3E-05 Ry
     Gradient error          =      4.0E-04 Ry/Bohr
     Cell gradient error     =      2.4E-01 kbar

     bfgs converged in  10 scf cycles and   9 bfgs steps
     (criteria: energy <  1.0E-04 Ry, force <  1.0E-03Ry/Bohr, cell <  5.0E-01kbar)

     End of BFGS Geometry Optimization

     Final enthalpy           =   -1374.3828061180 Ry

     File /scratch/as3359/Ta2C_loop/Ta.bfgs deleted, as requested
Begin final coordinates
     new unit-cell volume =   1604.33454 a.u.^3 (   237.73785 Ang^3 )
     density =      2.61863 g/cm^3

CELL_PARAMETERS (alat=  5.55000000)
   1.040980697  -0.000000000   0.000000000
  -0.520490348   0.901515727   0.000000000
   0.000000000   0.000000000  10.000000000

ATOMIC_POSITIONS (crystal)
C             0.0000000000        0.0000000000        0.0000000000    0   0   0
Ta            0.6666666670        0.3333333330       -0.0415602394
Ta            0.3333333330        0.6666666670        0.0426080640
H             0.3333333330        0.6666666670        0.1035968067
End final coordinates

     Writing output data file /scratch/as3359/Ta2C_loop/Ta.save/

     Final scf calculation at the relaxed structure.
     The G-vectors are recalculated for the final unit cell
     Results may differ from those at the preceding step.

     Using Slab Decomposition

     bravais-lattice index     =            0
     lattice parameter (alat)  =       5.5500  a.u.
     unit-cell volume          =    1604.3345 (a.u.)^3
     number of atoms/cell      =            4
     number of atomic types    =            3
     number of electrons       =        59.00
     number of Kohn-Sham states=           36
     kinetic-energy cutoff     =      70.0000  Ry
     charge density cutoff     =     700.0000  Ry
     scf convergence threshold =      1.0E-14
     mixing beta               =       0.7000
     number of iterations used =            8  plain     mixing
     press convergence thresh. =      5.0E-01
     Exchange-correlation= PBESOL
                           (   1   4  10   8   0   0   0)

     celldm(1)=   5.550000  celldm(2)=   0.000000  celldm(3)=   0.000000
     celldm(4)=   0.000000  celldm(5)=   0.000000  celldm(6)=   0.000000

     crystal axes: (cart. coord. in units of alat)
               a(1) = (   1.040981  -0.000000   0.000000 )
               a(2) = (  -0.520490   0.901516   0.000000 )
               a(3) = (   0.000000   0.000000  10.000000 )

     reciprocal axes: (cart. coord. in units 2 pi/alat)
               b(1) = (  0.960633  0.554621  0.000000 )
               b(2) = (  0.000000  1.109243  0.000000 )
               b(3) = (  0.000000  0.000000  0.100000 )

     PseudoPot. # 1 for Ta read from file:
     /shared/home/as3359/pseudo/Ta.pbesol-spfn-rrkjus_psl.1.0.0.UPF
     MD5 check sum: f099565ffaca9b150a52e9412a28e20b
     Pseudo is Ultrasoft + core correction, Zval = 27.0
     Generated using &quot;atomic&quot; code by A. Dal Corso  v.6.3
     Using radial grid of 1273 points,  8 beta functions with:
                l(1) =   0
                l(2) =   0
                l(3) =   1
                l(4) =   1
                l(5) =   2
                l(6) =   2
                l(7) =   3
                l(8) =   3
     Q(r) pseudized with 0 coefficients

     PseudoPot. # 2 for C  read from file:
     /shared/home/as3359/pseudo/C.pbesol-n-rrkjus_psl.1.0.0.UPF
     MD5 check sum: 05995be603a8a7c99da3dc4413f31573
     Pseudo is Ultrasoft + core correction, Zval =  4.0
     Generated using &quot;atomic&quot; code by A. Dal Corso  v.6.3MaX
     Using radial grid of 1073 points,  4 beta functions with:
                l(1) =   0
                l(2) =   0
                l(3) =   1
                l(4) =   1
     Q(r) pseudized with 0 coefficients

     PseudoPot. # 3 for H  read from file:
     /shared/home/as3359/pseudo/H.pbesol-rrkjus_psl.0.1.UPF
     MD5 check sum: 1dbb1a5c48b1283557b8117eb856a7ca
     Pseudo is Ultrasoft, Zval =  1.0
     Generated using "atomic" code by A. Dal Corso  v.5.0.2 svn rev. 9415
     Using radial grid of  929 points,  2 beta functions with:
                l(1) =   0
                l(2) =   0
     Q(r) pseudized with 0 coefficients

     atomic species   valence    mass     pseudopotential
        Ta            27.00   180.94788     Ta( 1.00)
        C              4.00    12.01070     C ( 1.00)
        H              1.00     1.00000     H ( 1.00)

      6 Sym. Ops. (no inversion) found

   Cartesian axes

     site n.     atom                  positions (alat units)
         1           C   tau(   1) = (   0.0000000   0.0000000   0.0000000  )
         2           Ta  tau(   2) = (   0.5204903   0.3005052  -0.4156024  )
         3           Ta  tau(   3) = (  -0.0000000   0.6010105   0.4260806  )
         4           H   tau(   4) = (  -0.0000000   0.6010105   1.0359681  )

     number of k points=    19  Marzari-Vanderbilt smearing, width (Ry)=  0.0010
                       cart. coord. in units 2pi/alat
        k(    1) = (   0.0000000   0.0000000   0.0000000), wk =   0.0138889
        k(    2) = (   0.0000000   0.0924369   0.0000000), wk =   0.0833333
        k(    3) = (   0.0000000   0.1848738   0.0000000), wk =   0.0833333
        k(    4) = (   0.0000000   0.2773107   0.0000000), wk =   0.0833333
        k(    5) = (   0.0000000   0.3697477   0.0000000), wk =   0.0833333
        k(    6) = (   0.0000000   0.4621846   0.0000000), wk =   0.0833333
        k(    7) = (  -0.0000000  -0.5546215   0.0000000), wk =   0.0416667
        k(    8) = (   0.0800527   0.1386554   0.0000000), wk =   0.0833333
        k(    9) = (   0.0800527   0.2310923   0.0000000), wk =   0.1666667
        k(   10) = (   0.0800527   0.3235292   0.0000000), wk =   0.1666667
        k(   11) = (   0.0800527   0.4159661   0.0000000), wk =   0.1666667
        k(   12) = (   0.0800527   0.5084030   0.0000000), wk =   0.1666667
        k(   13) = (   0.1601054   0.2773107   0.0000000), wk =   0.0833333
        k(   14) = (   0.1601054   0.3697477   0.0000000), wk =   0.1666667
        k(   15) = (   0.1601054   0.4621846   0.0000000), wk =   0.1666667
        k(   16) = (   0.1601054   0.5546215   0.0000000), wk =   0.0833333
        k(   17) = (   0.2401582   0.4159661   0.0000000), wk =   0.0833333
        k(   18) = (   0.2401582   0.5084030   0.0000000), wk =   0.1666667
        k(   19) = (   0.3202109   0.5546215   0.0000000), wk =   0.0277778

     Initial potential from superposition of free atoms

     starting charge   58.99841, renormalised to   59.00000

     negative rho (up, down):  4.890E-05 0.000E+00
     Starting wfcs are   39 randomized atomic wfcs

     Self-consistent Calculation

     iteration #  1     ecut=    70.00 Ry     beta= 0.70
     Davidson diagonalization with overlap
     c_bands:  1 eigenvalues not converged
     c_bands:  1 eigenvalues not converged
     c_bands:  1 eigenvalues not converged
     c_bands:  1 eigenvalues not converged
     c_bands:  1 eigenvalues not converged
     c_bands:  1 eigenvalues not converged
     c_bands:  2 eigenvalues not converged
     c_bands:  2 eigenvalues not converged
     c_bands:  1 eigenvalues not converged
     c_bands:  2 eigenvalues not converged
     c_bands:  1 eigenvalues not converged
     ethr =  1.00E-06,  avg # of iterations = 18.2

[...]

     total energy              =   -1374.38281055 Ry
     estimated scf accuracy    <          7.9E-14 Ry

     iteration # 23     ecut=    70.00 Ry     beta= 0.70
     Davidson diagonalization with overlap
     ethr =  1.00E-13,  avg # of iterations =  1.0

[...]

     End of self-consistent calculation

[...]

          k =-0.0000-0.5546 0.0000 ( 15886 PWs)   bands (ev):

[...]

          k = 0.3202 0.5546 0.0000 ( 15798 PWs)   bands (ev):

   -69.1576 -68.8365 -35.8782 -35.8603 -35.8142 -35.6042 -35.5173 -35.2271
   -20.8711 -20.8700 -20.8697 -20.8429 -20.8337 -20.8074 -20.7787 -20.5525
   -20.5274 -20.5233 -20.5187 -20.4839 -20.4833 -20.4561 -12.3535  -6.9209
    -6.8033  -5.3254  -2.1440  -1.9090  -1.7728  -1.5777  -0.4892   1.5302
     2.1957   2.5000   4.3116   5.5565

     the Fermi energy is    -1.2120 ev

!    total energy              =   -1374.38281055 Ry
     estimated scf accuracy    <          8.7E-15 Ry
     smearing contrib. (-TS)   =       0.00001634 Ry
     internal energy E=F+TS    =   -1374.38282688 Ry

     The total energy is F=E-TS. E is the sum of the following terms:
     one-electron contribution =  -10959.98685882 Ry
     hartree contribution      =    5506.89945706 Ry
     xc contribution           =    -139.42263487 Ry
     ewald contribution        =    4218.12720975 Ry

     convergence has been achieved in  23 iterations

     negative rho (up, down):  7.042E-05 0.000E+00

     Forces acting on atoms (cartesian axes, Ry/au):

     atom    1 type  2   force =     0.00000000    0.00000000    0.00026381
     atom    2 type  1   force =     0.00000000    0.00000000   -0.00040165
     atom    3 type  1   force =     0.00000000    0.00000000    0.00024255
     atom    4 type  3   force =     0.00000000    0.00000000   -0.00010471

     Total force =     0.000481     Total SCF correction =     0.000000

     Computing stress (Cartesian axis) and pressure

     negative rho (up, down):  7.042E-05 0.000E+00
          total   stress  (Ry/bohr**3)                   (kbar)     P=       -0.34
  -0.00000163   0.00000000   0.00000000           -0.24        0.00        0.00
   0.00000000  -0.00000163   0.00000000            0.00       -0.24        0.00
   0.00000000   0.00000000  -0.00000360            0.00        0.00       -0.53

     Writing output data file /scratch/as3359/Ta2C_loop/Ta.save/

     General routines

     Parallel routines

   This run was terminated on:  18:30:19  21Apr2022

   JOB DONE.