     Program PWSCF v.6.8 starts on 21Apr2022 at 18:30:20

     R & G space division:  proc/nbgrp/npool/nimage =       2

     Reading input from Ta2CH.relax.in
Warning: card  &CELL ignored
Warning: card     CELL_DYNAMICS='BFGS', CELL_DOFREE ='2DXY' ignored
Warning: card  / ignored

     Current dimensions of program PWSCF are:
     Max number of different atomic species (ntypx) = 10
     Max number of k-points (npk) =  40000
     Max angular momentum in pseudopotentials (lmaxx) =  4
     file Ta.pbesol-spfn-rrkjus_psl.1.0.0.UPF: wavefunction(s)  5S 5P renormalized
     Message from routine setup:
     using ibrav=0 with symmetry is DISCOURAGED, use correct ibrav instead

     Subspace diagonalization in iterative solution of the eigenvalue problem:
     a serial algorithm will be used

     Using Slab Decomposition

     bravais-lattice index     =            0
     lattice parameter (alat)  =       5.5500  a.u.
     unit-cell volume          =    1604.3345 (a.u.)^3
     number of atoms/cell      =            4
     number of atomic types    =            3
     number of electrons       =        59.00
     number of Kohn-Sham states=           36
     kinetic-energy cutoff     =      70.0000  Ry
     charge density cutoff     =     700.0000  Ry
     scf convergence threshold =      1.0E-12
     mixing beta               =       0.7000
     number of iterations used =            8  plain     mixing
     energy convergence thresh.=      1.0E-04
     force convergence thresh. =      1.0E-03
     Exchange-correlation= PBESOL
                           (   1   4  10   8   0   0   0)
     nstep                     =           50

     celldm(1)=   5.550000  celldm(2)=   0.000000  celldm(3)=   0.000000
     celldm(4)=   0.000000  celldm(5)=   0.000000  celldm(6)=   0.000000

     crystal axes: (cart. coord. in units of alat)
               a(1) = (   1.040981   0.000000   0.000000 )
               a(2) = (  -0.520490   0.901516   0.000000 )
               a(3) = (   0.000000   0.000000  10.000000 )

     reciprocal axes: (cart. coord. in units 2 pi/alat)
               b(1) = (  0.960633  0.554621  0.000000 )
               b(2) = (  0.000000  1.109243  0.000000 )
               b(3) = (  0.000000  0.000000  0.100000 )

     PseudoPot. # 1 for Ta read from file:
     /shared/home/as3359/pseudo/Ta.pbesol-spfn-rrkjus_psl.1.0.0.UPF
     MD5 check sum: f099565ffaca9b150a52e9412a28e20b
     Pseudo is Ultrasoft + core correction, Zval = 27.0
     Generated using &quot;atomic&quot; code by A. Dal Corso  v.6.3
     Using radial grid of 1273 points,  8 beta functions with:
                l(1) =   0
                l(2) =   0
                l(3) =   1
                l(4) =   1
                l(5) =   2
                l(6) =   2
                l(7) =   3
                l(8) =   3
     Q(r) pseudized with 0 coefficients

     PseudoPot. # 2 for C  read from file:
     /shared/home/as3359/pseudo/C.pbesol-n-rrkjus_psl.1.0.0.UPF
     MD5 check sum: 05995be603a8a7c99da3dc4413f31573
     Pseudo is Ultrasoft + core correction, Zval =  4.0
     Generated using &quot;atomic&quot; code by A. Dal Corso  v.6.3MaX
     Using radial grid of 1073 points,  4 beta functions with:
                l(1) =   0
                l(2) =   0
                l(3) =   1
                l(4) =   1
     Q(r) pseudized with 0 coefficients

     PseudoPot. # 3 for H  read from file:
     /shared/home/as3359/pseudo/H.pbesol-rrkjus_psl.0.1.UPF
     MD5 check sum: 1dbb1a5c48b1283557b8117eb856a7ca
     Pseudo is Ultrasoft, Zval =  1.0
     Generated using "atomic" code by A. Dal Corso  v.5.0.2 svn rev. 9415
     Using radial grid of  929 points,  2 beta functions with:
                l(1) =   0
                l(2) =   0
     Q(r) pseudized with 0 coefficients

     atomic species   valence    mass     pseudopotential
        Ta            27.00   180.94788     Ta( 1.00)
        C              4.00    12.01070     C ( 1.00)
        H              1.00     1.00000     H ( 1.00)

      6 Sym. Ops. (no inversion) found

   Cartesian axes

     site n.     atom                  positions (alat units)
         1           C   tau(   1) = (   0.0000000   0.0000000   0.0000000  )
         2           Ta  tau(   2) = (   0.5204903   0.3005052  -0.4156024  )
         3           Ta  tau(   3) = (   0.0000000   0.6010105   0.4260806  )
         4           H   tau(   4) = (   0.0000000   0.6010105   1.0359681  )

     number of k points=    19  Marzari-Vanderbilt smearing, width (Ry)=  0.0010
                       cart. coord. in units 2pi/alat
        k(    1) = (   0.0000000   0.0000000   0.0000000), wk =   0.0138889
        k(    2) = (   0.0000000   0.0924369   0.0000000), wk =   0.0833333
        k(    3) = (   0.0000000   0.1848738   0.0000000), wk =   0.0833333
        k(    4) = (   0.0000000   0.2773107   0.0000000), wk =   0.0833333
        k(    5) = (   0.0000000   0.3697477   0.0000000), wk =   0.0833333
        k(    6) = (   0.0000000   0.4621846   0.0000000), wk =   0.0833333
        k(    7) = (   0.0000000  -0.5546215   0.0000000), wk =   0.0416667
        k(    8) = (   0.0800527   0.1386554   0.0000000), wk =   0.0833333
        k(    9) = (   0.0800527   0.2310923   0.0000000), wk =   0.1666667
        k(   10) = (   0.0800527   0.3235292   0.0000000), wk =   0.1666667
        k(   11) = (   0.0800527   0.4159661   0.0000000), wk =   0.1666667
        k(   12) = (   0.0800527   0.5084030   0.0000000), wk =   0.1666667
        k(   13) = (   0.1601054   0.2773107   0.0000000), wk =   0.0833333
        k(   14) = (   0.1601054   0.3697477   0.0000000), wk =   0.1666667
        k(   15) = (   0.1601054   0.4621846   0.0000000), wk =   0.1666667
        k(   16) = (   0.1601054   0.5546215   0.0000000), wk =   0.0833333
        k(   17) = (   0.2401582   0.4159661   0.0000000), wk =   0.0833333
        k(   18) = (   0.2401582   0.5084030   0.0000000), wk =   0.1666667
        k(   19) = (   0.3202109   0.5546215   0.0000000), wk =   0.0277778

     Initial potential from superposition of free atoms

     starting charge   58.99841, renormalised to   59.00000

     negative rho (up, down):  4.890E-05 0.000E+00
     Starting wfcs are   39 randomized atomic wfcs

     Self-consistent Calculation

     iteration #  1     ecut=    70.00 Ry     beta= 0.70
     Davidson diagonalization with overlap
     ethr =  1.00E-02,  avg # of iterations =  2.2

     negative rho (up, down):  1.848E-05 0.000E+00

     total energy              =   -1373.18940336 Ry
     estimated scf accuracy    <       1.73486294 Ry

[...]

     total energy              =   -1374.38281090 Ry
     estimated scf accuracy    <          5.3E-12 Ry

     iteration # 21     ecut=    70.00 Ry     beta= 0.70
     Davidson diagonalization with overlap
     ethr =  1.00E-13,  avg # of iterations =  1.1

[...]

     End of self-consistent calculation

          k = 0.0000 0.0000 0.0000 ( 15969 PWs)   bands (ev):

   -69.2086 -68.8862 -36.0334 -35.3275 -35.3275 -35.2869 -35.1402 -35.1402
   -20.8925 -20.8558 -20.8558 -20.8455 -20.8455 -20.8235 -20.7616 -20.5685
   -20.5299 -20.5299 -20.5057 -20.4772 -20.4686 -20.4686 -14.0571  -8.5006
    -5.0190  -5.0190  -4.3682  -2.8692  -1.7588  -1.0300  -1.0300   0.9396
     0.9396   1.9139   1.9139   2.4826

[...]

          k = 0.3202 0.5546 0.0000 ( 15798 PWs)   bands (ev):

   -69.1576 -68.8365 -35.8782 -35.8603 -35.8142 -35.6042 -35.5173 -35.2271
   -20.8711 -20.8700 -20.8697 -20.8429 -20.8337 -20.8074 -20.7787 -20.5525
   -20.5274 -20.5233 -20.5187 -20.4838 -20.4833 -20.4561 -12.3535  -6.9209
    -6.8033  -5.3254  -2.1440  -1.9090  -1.7728  -1.5777  -0.4892   1.5302
     2.1957   2.5000   4.3116   5.5565

     the Fermi energy is    -1.2120 ev

!    total energy              =   -1374.38281090 Ry
     estimated scf accuracy    <          5.7E-13 Ry
     smearing contrib. (-TS)   =       0.00001634 Ry
     internal energy E=F+TS    =   -1374.38282723 Ry

     The total energy is F=E-TS. E is the sum of the following terms:
     one-electron contribution =  -10959.98696499 Ry
     hartree contribution      =    5506.89951382 Ry
     xc contribution           =    -139.42263600 Ry
     ewald contribution        =    4218.12725994 Ry

     convergence has been achieved in  21 iterations

     negative rho (up, down):  7.042E-05 0.000E+00

     Forces acting on atoms (cartesian axes, Ry/au):

     atom    1 type  2   force =     0.00000000    0.00000000    0.00026513
     atom    2 type  1   force =     0.00000000    0.00000000   -0.00040311
     atom    3 type  1   force =    -0.00000000   -0.00000000    0.00024143
     atom    4 type  3   force =     0.00000000    0.00000000   -0.00010345

     Total force =     0.000549     Total SCF correction =     0.000008

     Computing stress (Cartesian axis) and pressure

     negative rho (up, down):  7.042E-05 0.000E+00
          total   stress  (Ry/bohr**3)                   (kbar)     P=       -0.34
  -0.00000162   0.00000000  -0.00000000           -0.24        0.00       -0.00
   0.00000000  -0.00000162  -0.00000000            0.00       -0.24       -0.00
   0.00000000   0.00000000  -0.00000359            0.00        0.00       -0.53

     BFGS Geometry Optimization
     Energy error            =      0.0E+00 Ry
     Gradient error          =      4.0E-04 Ry/Bohr

     bfgs converged in   1 scf cycles and   0 bfgs steps
     (criteria: energy <  1.0E-04 Ry, force <  1.0E-03 Ry/Bohr)

     End of BFGS Geometry Optimization

     Final energy             =   -1374.3828108973 Ry
Begin final coordinates

ATOMIC_POSITIONS (alat)
C             0.0000000000        0.0000000000        0.0000000000
Ta            0.5204903000        0.3005052000       -0.4156024000
Ta            0.0000000000        0.6010105000        0.4260806000
H             0.0000000000        0.6010105000        1.0359681000
End final coordinates

     Writing output data file /scratch/as3359/Ta2C_loop/Ta.save/

     General routines

     Parallel routines

   This run was terminated on:  18:32:40  21Apr2022

   JOB DONE.