     Program PWSCF v.6.8 starts on  7Apr2022 at 20:13:20

     R & G space division:  proc/nbgrp/npool/nimage =       2

     Waiting for input...
     Reading input from standard input

     Current dimensions of program PWSCF are:
     Max number of different atomic species (ntypx) = 10
     Max number of k-points (npk) =  40000
     Max angular momentum in pseudopotentials (lmaxx) =  4
     file Ta.pbesol-spfn-rrkjus_psl.1.0.0.UPF: wavefunction(s)  5S 5P renormalized

     Subspace diagonalization in iterative solution of the eigenvalue problem:
     a serial algorithm will be used

     Using Slab Decomposition

     bravais-lattice index     =            0
     lattice parameter (alat)  =       5.5500  a.u.
     unit-cell volume          =    1619.1137 (a.u.)^3
     number of atoms/cell      =            4
     number of atomic types    =            3
     number of electrons       =        64.00
     number of Kohn-Sham states=           38
     kinetic-energy cutoff     =      70.0000  Ry
     charge density cutoff     =     700.0000  Ry
     scf convergence threshold =      1.0E-12
     mixing beta               =       0.7000
     number of iterations used =            8  plain     mixing
     Exchange-correlation= PBESOL
                           (   1   4  10   8   0   0   0)

     celldm(1)=   5.550000  celldm(2)=   0.000000  celldm(3)=   0.000000
     celldm(4)=   0.000000  celldm(5)=   0.000000  celldm(6)=   0.000000

     crystal axes: (cart. coord. in units of alat)
               a(1) = (   1.047458  -0.003042   0.000000 )
               a(2) = (  -0.525368   0.905721   0.000000 )
               a(3) = (   0.000000   0.000000  10.000000 )

     reciprocal axes: (cart. coord. in units 2 pi/alat)
               b(1) = (  0.956304  0.554710  0.000000 )
               b(2) = (  0.003212  1.105956  0.000000 )
               b(3) = (  0.000000  0.000000  0.100000 )

     PseudoPot. # 1 for Ta read from file:
     /shared/home/as3359/pseudo/Ta.pbesol-spfn-rrkjus_psl.1.0.0.UPF
     MD5 check sum: f099565ffaca9b150a52e9412a28e20b
     Pseudo is Ultrasoft + core correction, Zval = 27.0
     Generated using &quot;atomic&quot; code by A. Dal Corso  v.6.3
     Using radial grid of 1273 points,  8 beta functions with:
                l(1) =   0
                l(2) =   0
                l(3) =   1
                l(4) =   1
                l(5) =   2
                l(6) =   2
                l(7) =   3
                l(8) =   3
     Q(r) pseudized with 0 coefficients

     PseudoPot. # 2 for C  read from file:
     /shared/home/as3359/pseudo/C.pbesol-n-rrkjus_psl.1.0.0.UPF
     MD5 check sum: 05995be603a8a7c99da3dc4413f31573
     Pseudo is Ultrasoft + core correction, Zval =  4.0
     Generated using &quot;atomic&quot; code by A. Dal Corso  v.6.3MaX
     Using radial grid of 1073 points,  4 beta functions with:
                l(1) =   0
                l(2) =   0
                l(3) =   1
                l(4) =   1
     Q(r) pseudized with 0 coefficients

     PseudoPot. # 3 for O  read from file:
     /shared/home/as3359/pseudo/O.pbesol-n-rrkjus_psl.1.0.0.UPF
     MD5 check sum: dd9bad2534826f832ffc9296591fc5de
     Pseudo is Ultrasoft + core correction, Zval =  6.0
     Generated using &quot;atomic&quot; code by A. Dal Corso  v.6.3MaX
     Using radial grid of 1095 points,  4 beta functions with:
                l(1) =   0
                l(2) =   0
                l(3) =   1
                l(4) =   1
     Q(r) pseudized with 0 coefficients

     atomic species   valence    mass     pseudopotential
        Ta            27.00   180.94788     Ta( 1.00)
        C              4.00    12.01070     C ( 1.00)
        O              6.00    15.99940     O ( 1.00)

     No symmetry found

   Cartesian axes

     site n.     atom                  positions (alat units)
         1           C   tau(   1) = (   0.0000000   0.0000000   0.0000000  )
         2           Ta  tau(   2) = (   0.5237441   0.2989654  -0.4007024  )
         3           Ta  tau(   3) = (  -0.0010323   0.6027030   0.4306046  )
         4           O   tau(   4) = (   0.5210222   0.3011869   0.8013113  )

     number of k points=    74  Marzari-Vanderbilt smearing, width (Ry)=  0.0010
                       cart. coord. in units 2pi/alat
        k(    1) = (   0.0000000   0.0000000   0.0000000), wk =   0.0138889
        k(    2) = (   0.0002677   0.0921630   0.0000000), wk =   0.0277778
        k(    3) = (   0.0005353   0.1843261   0.0000000), wk =   0.0277778
        k(    4) = (   0.0008030   0.2764891   0.0000000), wk =   0.0277778
        k(    5) = (   0.0010706   0.3686522   0.0000000), wk =   0.0277778
        k(    6) = (   0.0013383   0.4608152   0.0000000), wk =   0.0277778
        k(    7) = (  -0.0016060  -0.5529782   0.0000000), wk =   0.0138889
        k(    8) = (   0.0796920   0.0462258   0.0000000), wk =   0.0277778
        k(    9) = (   0.0799596   0.1383888   0.0000000), wk =   0.0277778
        k(   10) = (   0.0802273   0.2305519   0.0000000), wk =   0.0277778
        k(   11) = (   0.0804950   0.3227149   0.0000000), wk =   0.0277778
        k(   12) = (   0.0807626   0.4148779   0.0000000), wk =   0.0277778
        k(   13) = (   0.0810303   0.5070410   0.0000000), wk =   0.0277778
        k(   14) = (   0.0780860  -0.5067524   0.0000000), wk =   0.0277778
        k(   15) = (   0.0783537  -0.4145894   0.0000000), wk =   0.0277778
        k(   16) = (   0.0786213  -0.3224264   0.0000000), wk =   0.0277778
        k(   17) = (   0.0788890  -0.2302633   0.0000000), wk =   0.0277778
        k(   18) = (   0.0791566  -0.1381003   0.0000000), wk =   0.0277778
        k(   19) = (   0.0794243  -0.0459372   0.0000000), wk =   0.0277778
        k(   20) = (   0.1593839   0.0924516   0.0000000), wk =   0.0277778
        k(   21) = (   0.1596516   0.1846146   0.0000000), wk =   0.0277778
        k(   22) = (   0.1599193   0.2767777   0.0000000), wk =   0.0277778
        k(   23) = (   0.1601869   0.3689407   0.0000000), wk =   0.0277778
        k(   24) = (   0.1604546   0.4611037   0.0000000), wk =   0.0277778
        k(   25) = (   0.1607223   0.5532668   0.0000000), wk =   0.0277778
        k(   26) = (   0.1577780  -0.4605266   0.0000000), wk =   0.0277778
        k(   27) = (   0.1580456  -0.3683636   0.0000000), wk =   0.0277778
        k(   28) = (   0.1583133  -0.2762006   0.0000000), wk =   0.0277778
        k(   29) = (   0.1585810  -0.1840375   0.0000000), wk =   0.0277778
        k(   30) = (   0.1588486  -0.0918745   0.0000000), wk =   0.0277778
        k(   31) = (   0.1591163   0.0002886   0.0000000), wk =   0.0277778
        k(   32) = (   0.2390759   0.1386774   0.0000000), wk =   0.0277778
        k(   33) = (   0.2393436   0.2308404   0.0000000), wk =   0.0277778
        k(   34) = (   0.2396112   0.3230035   0.0000000), wk =   0.0277778
        k(   35) = (   0.2398789   0.4151665   0.0000000), wk =   0.0277778
        k(   36) = (   0.2401466   0.5073295   0.0000000), wk =   0.0277778
        k(   37) = (   0.2404142   0.5994926   0.0000000), wk =   0.0277778
        k(   38) = (   0.2374699  -0.4143008   0.0000000), wk =   0.0277778
        k(   39) = (   0.2377376  -0.3221378   0.0000000), wk =   0.0277778
        k(   40) = (   0.2380053  -0.2299748   0.0000000), wk =   0.0277778
        k(   41) = (   0.2382729  -0.1378117   0.0000000), wk =   0.0277778
        k(   42) = (   0.2385406  -0.0456487   0.0000000), wk =   0.0277778
        k(   43) = (   0.2388083   0.0465143   0.0000000), wk =   0.0277778
        k(   44) = (   0.3187679   0.1849032   0.0000000), wk =   0.0277778
        k(   45) = (   0.3190355   0.2770662   0.0000000), wk =   0.0277778
        k(   46) = (   0.3193032   0.3692293   0.0000000), wk =   0.0277778
        k(   47) = (   0.3195709   0.4613923   0.0000000), wk =   0.0277778
        k(   48) = (   0.3198385   0.5535553   0.0000000), wk =   0.0277778
        k(   49) = (   0.3201062   0.6457184   0.0000000), wk =   0.0277778
        k(   50) = (   0.3171619  -0.3680751   0.0000000), wk =   0.0277778
        k(   51) = (   0.3174296  -0.2759120   0.0000000), wk =   0.0277778
        k(   52) = (   0.3176972  -0.1837490   0.0000000), wk =   0.0277778
        k(   53) = (   0.3179649  -0.0915859   0.0000000), wk =   0.0277778
        k(   54) = (   0.3182326   0.0005771   0.0000000), wk =   0.0277778
        k(   55) = (   0.3185002   0.0927401   0.0000000), wk =   0.0277778
        k(   56) = (   0.3984599   0.2311290   0.0000000), wk =   0.0277778
        k(   57) = (   0.3987275   0.3232920   0.0000000), wk =   0.0277778
        k(   58) = (   0.3989952   0.4154551   0.0000000), wk =   0.0277778
        k(   59) = (   0.3992628   0.5076181   0.0000000), wk =   0.0277778
        k(   60) = (   0.3995305   0.5997811   0.0000000), wk =   0.0277778
        k(   61) = (   0.3997982   0.6919442   0.0000000), wk =   0.0277778
        k(   62) = (   0.3968539  -0.3218493   0.0000000), wk =   0.0277778
        k(   63) = (   0.3971215  -0.2296862   0.0000000), wk =   0.0277778
        k(   64) = (   0.3973892  -0.1375232   0.0000000), wk =   0.0277778
        k(   65) = (   0.3976569  -0.0453601   0.0000000), wk =   0.0277778
        k(   66) = (   0.3979245   0.0468029   0.0000000), wk =   0.0277778
        k(   67) = (   0.3981922   0.1389659   0.0000000), wk =   0.0277778
        k(   68) = (  -0.4781518  -0.2773548   0.0000000), wk =   0.0138889
        k(   69) = (  -0.4778842  -0.1851917   0.0000000), wk =   0.0277778
        k(   70) = (  -0.4776165  -0.0930287   0.0000000), wk =   0.0277778
        k(   71) = (  -0.4773488  -0.0008657   0.0000000), wk =   0.0277778
        k(   72) = (  -0.4770812   0.0912974   0.0000000), wk =   0.0277778
        k(   73) = (  -0.4768135   0.1834604   0.0000000), wk =   0.0277778
        k(   74) = (  -0.4797578  -0.8303330   0.0000000), wk =   0.0138889

     Initial potential from superposition of free atoms

     starting charge   63.99842, renormalised to   64.00000

     negative rho (up, down):  1.038E-04 0.000E+00
     Starting wfcs are   42 randomized atomic wfcs

     Self-consistent Calculation

     iteration #  1     ecut=    70.00 Ry     beta= 0.70
     Davidson diagonalization with overlap
     ethr =  1.00E-02,  avg # of iterations =  2.2

     negative rho (up, down):  1.800E-07 0.000E+00

     total energy              =   -1404.93677568 Ry
     estimated scf accuracy    <       1.47656237 Ry

[...]

     total energy              =   -1405.82702090 Ry
     estimated scf accuracy    <          1.1E-12 Ry

     iteration # 24     ecut=    70.00 Ry     beta= 0.70
     Davidson diagonalization with overlap
     ethr =  1.00E-13,  avg # of iterations =  1.0

[...]

     End of self-consistent calculation

          k = 0.0000 0.0000 0.0000 ( 16117 PWs)   bands (ev):

   -69.0720 -68.1573 -35.8031 -35.3098 -35.3038 -34.8227 -34.2995 -34.2920
   -20.8300 -20.6585 -20.6550 -20.6547 -20.6374 -20.6353 -20.6025 -19.8489
   -19.8085 -19.8028 -19.7865 -19.7863 -19.7698 -19.7080 -19.5846 -13.0436
    -7.8910  -6.2039  -6.1473  -4.5499  -3.3565  -3.3047  -0.9631  -0.3567
    -0.2663  -0.1297   2.2654   2.3073   2.7685   2.8342

[...]

          k =-0.0016-0.5530 0.0000 ( 16014 PWs)   bands (ev):

[...]

          k = 0.3982 0.1390 0.0000 ( 16017 PWs)   bands (ev):

[...]

          k =-0.4798-0.8303 0.0000 ( 16018 PWs)   bands (ev):

   -69.0272 -68.1164 -36.0831 -35.6105 -35.4691 -34.9101 -34.7671 -34.4453
   -20.7351 -20.6585 -20.6530 -20.6417 -20.6349 -20.6305 -20.6285 -19.8335
   -19.8241 -19.8146 -19.7861 -19.7691 -19.7442 -19.7300 -19.1652 -11.8291
    -8.1650  -5.7286  -5.6260  -5.2718  -4.7327  -3.6471  -2.1565   0.0137
     1.8483   2.4092   3.2012   3.4341   3.7569   4.5663

     the Fermi energy is    -0.1397 ev

!    total energy              =   -1405.82702090 Ry
     estimated scf accuracy    <          5.1E-13 Ry
     smearing contrib. (-TS)   =      -0.00001332 Ry
     internal energy E=F+TS    =   -1405.82700758 Ry

     The total energy is F=E-TS. E is the sum of the following terms:
     one-electron contribution =  -12409.27827579 Ry
     hartree contribution      =    6234.58068895 Ry
     xc contribution           =    -146.25465388 Ry
     ewald contribution        =    4915.12523314 Ry

     convergence has been achieved in  24 iterations

     negative rho (up, down):  1.128E-04 0.000E+00

     Forces acting on atoms (cartesian axes, Ry/au):

     atom    1 type  2   force =    -0.00002084   -0.00074181    0.00046591
     atom    2 type  1   force =    -0.00015510    0.00076119    0.00000051
     atom    3 type  1   force =    -0.00008712    0.00019802   -0.00044743
     atom    4 type  3   force =     0.00026306   -0.00021740   -0.00001900

     Total force =     0.001317     Total SCF correction =     0.000003

     Computing stress (Cartesian axis) and pressure

     negative rho (up, down):  1.128E-04 0.000E+00
          total   stress  (Ry/bohr**3)                   (kbar)     P=        0.15
   0.00000350   0.00000061   0.00000081            0.52        0.09        0.12
   0.00000061   0.00000584  -0.00000135            0.09        0.86       -0.20
   0.00000081  -0.00000135  -0.00000621            0.12       -0.20       -0.91

     Writing output data file /scratch/as3359/Ta2CO_loop/Ta.save/

     General routines

     Parallel routines

   This run was terminated on:  20:20:19   7Apr2022

   JOB DONE.