     Program PWSCF v.6.8 starts on  8Apr2022 at 12:39:14

     R & G space division:  proc/nbgrp/npool/nimage =       2

     Reading input from MoS2.relax.in
Warning: card  &CELL ignored
Warning: card     CELL_DYNAMICS='BFGS', CELL_DOFREE ='2DXY' ignored
Warning: card  / ignored

     Current dimensions of program PWSCF are:
     Max number of different atomic species (ntypx) = 10
     Max number of k-points (npk) =  40000
     Max angular momentum in pseudopotentials (lmaxx) =  4
     file Mo.pbesol-spn-kjpaw_psl.1.0.0.UPF: wavefunction(s)  4S 4D renormalized
     file S.pbesol-nl-kjpaw_psl.1.0.0.UPF: wavefunction(s)  3S renormalized
     Message from routine setup:
     using ibrav=0 with symmetry is DISCOURAGED, use correct ibrav instead

     Subspace diagonalization in iterative solution of the eigenvalue problem:
     a serial algorithm will be used

     Using Slab Decomposition

     bravais-lattice index     =            0
     lattice parameter (alat)  =       6.0720  a.u.
     unit-cell volume          =    1480.0328 (a.u.)^3
     number of atoms/cell      =            6
     number of atomic types    =            2
     number of electrons       =        52.00
     number of Kohn-Sham states=           26
     kinetic-energy cutoff     =      60.0000  Ry
     charge density cutoff     =     300.0000  Ry
     scf convergence threshold =      1.0E-12
     mixing beta               =       0.7000
     number of iterations used =            8  plain     mixing
     energy convergence thresh.=      1.0E-04
     force convergence thresh. =      1.0E-03
     Exchange-correlation= SLA  PW   PSX  PSC
                           (   1   4  10   8   0   0   0)
     nstep                     =           50

     celldm(1)=   6.072000  celldm(2)=   0.000000  celldm(3)=   0.000000
     celldm(4)=   0.000000  celldm(5)=   0.000000  celldm(6)=   0.000000

     crystal axes: (cart. coord. in units of alat)
               a(1) = (   0.976798  -0.000202   0.000000 )
               a(2) = (  -0.488299   0.846122   0.000000 )
               a(3) = (   0.000000   0.000000   8.000000 )

     reciprocal axes: (cart. coord. in units 2 pi/alat)
               b(1) = (  1.023875  0.590880  0.000000 )
               b(2) = (  0.000244  1.182003  0.000000 )
               b(3) = (  0.000000  0.000000  0.125000 )

     PseudoPot. # 1 for Mo read from file:
     /shared/home/as3359/pseudo/Mo.pbesol-spn-kjpaw_psl.1.0.0.UPF
     MD5 check sum: de57925cfc675213e43241dcc441eda8
     Pseudo is Projector augmented-wave + core cor, Zval = 14.0
     Generated using &quot;atomic&quot; code by A. Dal Corso  v.6.3
     Shape of augmentation charge: PSQ
     Using radial grid of 1229 points,  6 beta functions with:
                l(1) =   0
                l(2) =   0
                l(3) =   1
                l(4) =   1
                l(5) =   2
                l(6) =   2
     Q(r) pseudized with 0 coefficients

     PseudoPot. # 2 for S  read from file:
     /shared/home/as3359/pseudo/S.pbesol-nl-kjpaw_psl.1.0.0.UPF
     MD5 check sum: bf3db50ec3f960682bbc396f1aadd1dd
     Pseudo is Projector augmented-wave + core cor, Zval =  6.0
     Generated using &quot;atomic&quot; code by A. Dal Corso  v.6.3
     Shape of augmentation charge: PSQ
     Using radial grid of 1151 points,  4 beta functions with:
                l(1) =   0
                l(2) =   0
                l(3) =   1
                l(4) =   1
     Q(r) pseudized with 0 coefficients

     atomic species   valence    mass     pseudopotential
        Mo            14.00    95.94000     Mo( 1.00)
        S              6.00    32.06500     S ( 1.00)

      2 Sym. Ops. (no inversion) found ( 1 have fractional translation)

   Cartesian axes

     site n.     atom                  positions (alat units)
         1           Mo  tau(   1) = (   0.0000000   0.0000000   0.8657911  )
         2           S   tau(   2) = (   0.4884432   0.2819379   1.3514993  )
         3           S   tau(   3) = (   0.4884704   0.2819219   0.3800977  )
         4           Mo  tau(   4) = (   0.0000000   0.0000000   3.1342089  )
         5           S   tau(   5) = (   0.4884704   0.2819219   3.6199023  )
         6           S   tau(   6) = (   0.4884432   0.2819379   2.6485007  )

     number of k points=    74
                       cart. coord. in units 2pi/alat
        k(    1) = (   0.0000000   0.0000000   0.0000000), wk =   0.0138889
        k(    2) = (   0.0000204   0.0985003   0.0000000), wk =   0.0277778
        k(    3) = (   0.0000407   0.1970005   0.0000000), wk =   0.0277778
        k(    4) = (   0.0000611   0.2955008   0.0000000), wk =   0.0277778
        k(    5) = (   0.0000814   0.3940011   0.0000000), wk =   0.0277778
        k(    6) = (   0.0001018   0.4925014   0.0000000), wk =   0.0277778
        k(    7) = (  -0.0001221  -0.5910016   0.0000000), wk =   0.0138889
        k(    8) = (   0.0853229   0.0492400   0.0000000), wk =   0.0277778
        k(    9) = (   0.0853433   0.1477403   0.0000000), wk =   0.0277778
        k(   10) = (   0.0853637   0.2462406   0.0000000), wk =   0.0277778
        k(   11) = (   0.0853840   0.3447408   0.0000000), wk =   0.0277778
        k(   12) = (   0.0854044   0.4432411   0.0000000), wk =   0.0277778
        k(   13) = (   0.0854247   0.5417414   0.0000000), wk =   0.0277778
        k(   14) = (   0.0852008  -0.5417616   0.0000000), wk =   0.0277778
        k(   15) = (   0.0852212  -0.4432613   0.0000000), wk =   0.0277778
        k(   16) = (   0.0852415  -0.3447611   0.0000000), wk =   0.0277778
        k(   17) = (   0.0852619  -0.2462608   0.0000000), wk =   0.0277778
        k(   18) = (   0.0852822  -0.1477605   0.0000000), wk =   0.0277778
        k(   19) = (   0.0853026  -0.0492602   0.0000000), wk =   0.0277778
        k(   20) = (   0.1706459   0.0984800   0.0000000), wk =   0.0277778
        k(   21) = (   0.1706662   0.1969803   0.0000000), wk =   0.0277778
        k(   22) = (   0.1706866   0.2954806   0.0000000), wk =   0.0277778
        k(   23) = (   0.1707069   0.3939809   0.0000000), wk =   0.0277778
        k(   24) = (   0.1707273   0.4924811   0.0000000), wk =   0.0277778
        k(   25) = (   0.1707477   0.5909814   0.0000000), wk =   0.0277778
        k(   26) = (   0.1705237  -0.4925216   0.0000000), wk =   0.0277778
        k(   27) = (   0.1705441  -0.3940213   0.0000000), wk =   0.0277778
        k(   28) = (   0.1705645  -0.2955210   0.0000000), wk =   0.0277778
        k(   29) = (   0.1705848  -0.1970208   0.0000000), wk =   0.0277778
        k(   30) = (   0.1706052  -0.0985205   0.0000000), wk =   0.0277778
        k(   31) = (   0.1706255  -0.0000202   0.0000000), wk =   0.0277778
        k(   32) = (   0.2559688   0.1477201   0.0000000), wk =   0.0277778
        k(   33) = (   0.2559892   0.2462203   0.0000000), wk =   0.0277778
        k(   34) = (   0.2560095   0.3447206   0.0000000), wk =   0.0277778
        k(   35) = (   0.2560299   0.4432209   0.0000000), wk =   0.0277778
        k(   36) = (   0.2560502   0.5417212   0.0000000), wk =   0.0277778
        k(   37) = (   0.2560706   0.6402214   0.0000000), wk =   0.0277778
        k(   38) = (   0.2558467  -0.4432816   0.0000000), wk =   0.0277778
        k(   39) = (   0.2558670  -0.3447813   0.0000000), wk =   0.0277778
        k(   40) = (   0.2558874  -0.2462810   0.0000000), wk =   0.0277778
        k(   41) = (   0.2559078  -0.1477807   0.0000000), wk =   0.0277778
        k(   42) = (   0.2559281  -0.0492805   0.0000000), wk =   0.0277778
        k(   43) = (   0.2559485   0.0492198   0.0000000), wk =   0.0277778
        k(   44) = (   0.3412918   0.1969601   0.0000000), wk =   0.0277778
        k(   45) = (   0.3413121   0.2954604   0.0000000), wk =   0.0277778
        k(   46) = (   0.3413325   0.3939606   0.0000000), wk =   0.0277778
        k(   47) = (   0.3413528   0.4924609   0.0000000), wk =   0.0277778
        k(   48) = (   0.3413732   0.5909612   0.0000000), wk =   0.0277778
        k(   49) = (   0.3413935   0.6894615   0.0000000), wk =   0.0277778
        k(   50) = (   0.3411696  -0.3940415   0.0000000), wk =   0.0277778
        k(   51) = (   0.3411900  -0.2955413   0.0000000), wk =   0.0277778
        k(   52) = (   0.3412103  -0.1970410   0.0000000), wk =   0.0277778
        k(   53) = (   0.3412307  -0.0985407   0.0000000), wk =   0.0277778
        k(   54) = (   0.3412511  -0.0000404   0.0000000), wk =   0.0277778
        k(   55) = (   0.3412714   0.0984598   0.0000000), wk =   0.0277778
        k(   56) = (   0.4266147   0.2462001   0.0000000), wk =   0.0277778
        k(   57) = (   0.4266351   0.3447004   0.0000000), wk =   0.0277778
        k(   58) = (   0.4266554   0.4432007   0.0000000), wk =   0.0277778
        k(   59) = (   0.4266758   0.5417009   0.0000000), wk =   0.0277778
        k(   60) = (   0.4266961   0.6402012   0.0000000), wk =   0.0277778
        k(   61) = (   0.4267165   0.7387015   0.0000000), wk =   0.0277778
        k(   62) = (   0.4264926  -0.3448015   0.0000000), wk =   0.0277778
        k(   63) = (   0.4265129  -0.2463012   0.0000000), wk =   0.0277778
        k(   64) = (   0.4265333  -0.1478010   0.0000000), wk =   0.0277778
        k(   65) = (   0.4265536  -0.0493007   0.0000000), wk =   0.0277778
        k(   66) = (   0.4265740   0.0491996   0.0000000), wk =   0.0277778
        k(   67) = (   0.4265943   0.1476998   0.0000000), wk =   0.0277778
        k(   68) = (  -0.5119376  -0.2954401   0.0000000), wk =   0.0138889
        k(   69) = (  -0.5119173  -0.1969399   0.0000000), wk =   0.0277778
        k(   70) = (  -0.5118969  -0.0984396   0.0000000), wk =   0.0277778
        k(   71) = (  -0.5118766   0.0000607   0.0000000), wk =   0.0277778
        k(   72) = (  -0.5118562   0.0985609   0.0000000), wk =   0.0277778
        k(   73) = (  -0.5118359   0.1970612   0.0000000), wk =   0.0277778
        k(   74) = (  -0.5120598  -0.8864418   0.0000000), wk =   0.0138889

     Initial potential from superposition of free atoms

     starting charge   51.99828, renormalised to   52.00000

     negative rho (up, down):  2.689E-04 0.000E+00
     Starting wfcs are   36 randomized atomic wfcs
     Checking if some PAW data can be deallocated...

     Self-consistent Calculation

     iteration #  1     ecut=    60.00 Ry     beta= 0.70
     Davidson diagonalization with overlap
     ethr =  1.00E-02,  avg # of iterations =  2.0

     Threshold (ethr) on eigenvalues was too large:
     Diagonalizing with lowered threshold

     Davidson diagonalization with overlap
     ethr =  3.44E-04,  avg # of iterations =  3.9

     negative rho (up, down):  3.228E-04 0.000E+00

     total energy              =    -979.38702456 Ry
     estimated scf accuracy    <       0.28137761 Ry

[...]

     total energy              =    -979.51193484 Ry
     estimated scf accuracy    <          2.2E-11 Ry

     iteration # 33     ecut=    60.00 Ry     beta= 0.70
     Davidson diagonalization with overlap
     ethr =  1.00E-13,  avg # of iterations =  2.0

[...]

     End of self-consistent calculation

          k = 0.0000 0.0000 0.0000 ( 11705 PWs)   bands (ev):

   -58.7696 -58.7695 -32.9793 -32.9792 -32.7113 -32.7113 -32.7110 -32.7110
   -12.2850 -12.2713 -10.9394 -10.9143  -3.8919  -3.7885  -0.6556  -0.6548
    -0.6542  -0.6534  -0.0992   0.2501   0.5037   0.5052   0.5053   0.5069
     1.7467   1.9981

[...]

          k =-0.0001-0.5910 0.0000 ( 11612 PWs)   bands (ev):

[...]

          k = 0.4266 0.1477 0.0000 ( 11614 PWs)   bands (ev):

[...]

          k =-0.5121-0.8864 0.0000 ( 11612 PWs)   bands (ev):

   -58.7237 -58.7237 -33.1455 -33.1454 -32.8899 -32.8899 -32.8112 -32.8112
   -10.2503 -10.2395 -10.1208 -10.1087  -4.0182  -4.0003  -3.0240  -2.9940
    -2.2575  -2.1970  -1.2431  -1.2404  -0.0662   0.0780   1.0743   1.0826
     1.2462   1.3243

     highest occupied level (ev):     1.9981

!    total energy              =    -979.51193484 Ry

     total all-electron energy =    -19376.427625 Ry
     estimated scf accuracy    <          2.6E-13 Ry

     The total energy is the sum of the following terms:
     one-electron contribution =   -2375.07752287 Ry
     hartree contribution      =    1198.19311205 Ry
     xc contribution           =     -59.04876589 Ry
     ewald contribution        =     882.20395850 Ry
     one-center paw contrib.   =    -625.78271663 Ry

     convergence has been achieved in  33 iterations

     negative rho (up, down):  3.556E-04 0.000E+00

     Forces acting on atoms (cartesian axes, Ry/au):

     atom    1 type  1   force =     0.00004082    0.00003427   -0.00009414
     atom    2 type  2   force =    -0.00000403   -0.00002674   -0.00033907
     atom    3 type  2   force =    -0.00003678   -0.00000753    0.00038101
     atom    4 type  1   force =     0.00004082    0.00003427    0.00009414
     atom    5 type  2   force =    -0.00003678   -0.00000753   -0.00038101
     atom    6 type  2   force =    -0.00000403   -0.00002674    0.00033907

     Total force =     0.000740     Total SCF correction =     0.000002

     Computing stress (Cartesian axis) and pressure

     negative rho (up, down):  3.556E-04 0.000E+00
          total   stress  (Ry/bohr**3)                   (kbar)     P=       -0.68
  -0.00000041   0.00000022   0.00000000           -0.06        0.03        0.00
   0.00000022  -0.00000097   0.00000000            0.03       -0.14        0.00
   0.00000000   0.00000000  -0.00001256            0.00        0.00       -1.85

     BFGS Geometry Optimization
     Energy error            =      0.0E+00 Ry
     Gradient error          =      3.8E-04 Ry/Bohr

     bfgs converged in   1 scf cycles and   0 bfgs steps
     (criteria: energy <  1.0E-04 Ry, force <  1.0E-03 Ry/Bohr)

     End of BFGS Geometry Optimization

     Final energy             =    -979.5119348417 Ry
Begin final coordinates

ATOMIC_POSITIONS (alat)
Mo            0.0000000000        0.0000000000        0.8657911000
S             0.4884432000        0.2819379000        1.3514993000
S             0.4884704000        0.2819219000        0.3800977000
Mo            0.0000000000        0.0000000000        3.1342089000
S             0.4884704000        0.2819219000        3.6199023000
S             0.4884432000        0.2819379000        2.6485007000
End final coordinates

     Writing output data file /scratch/as3359/MoS2_loop/Ta.save/

     General routines

     Parallel routines

   This run was terminated on:  12:44:20   8Apr2022

   JOB DONE.