     Program PWSCF v.6.8 starts on  8Apr2022 at 10: 8:27

     R & G space division:  proc/nbgrp/npool/nimage =       2

     Reading input from MoS2.vcrelax.in

     Current dimensions of program PWSCF are:
     Max number of different atomic species (ntypx) = 10
     Max number of k-points (npk) =  40000
     Max angular momentum in pseudopotentials (lmaxx) =  4
     file Mo.pbesol-spn-kjpaw_psl.1.0.0.UPF: wavefunction(s)  4S 4D renormalized
     file S.pbesol-nl-kjpaw_psl.1.0.0.UPF: wavefunction(s)  3S renormalized
     Message from routine setup:
     using ibrav=0 with symmetry is DISCOURAGED, use correct ibrav instead

     Subspace diagonalization in iterative solution of the eigenvalue problem:
     a serial algorithm will be used

     Using Slab Decomposition

     bravais-lattice index     =            0
     lattice parameter (alat)  =       6.0720  a.u.
     unit-cell volume          =    1479.6792 (a.u.)^3
     number of atoms/cell      =            6
     number of atomic types    =            2
     number of electrons       =        52.00
     number of Kohn-Sham states=           26
     kinetic-energy cutoff     =      60.0000  Ry
     charge density cutoff     =     300.0000  Ry
     scf convergence threshold =      1.0E-12
     mixing beta               =       0.3000
     number of iterations used =            8  plain     mixing
     energy convergence thresh.=      1.0E-04
     force convergence thresh. =      1.0E-03
     press convergence thresh. =      5.0E-01
     Exchange-correlation= SLA  PW   PSX  PSC
                           (   1   4  10   8   0   0   0)
     nstep                     =           50

     celldm(1)=   6.072000  celldm(2)=   0.000000  celldm(3)=   0.000000
     celldm(4)=   0.000000  celldm(5)=   0.000000  celldm(6)=   0.000000

     crystal axes: (cart. coord. in units of alat)
               a(1) = (   0.976384  -0.000017   0.000000 )
               a(2) = (  -0.487931   0.846187   0.000000 )
               a(3) = (   0.000000   0.000000   8.000000 )

     reciprocal axes: (cart. coord. in units 2 pi/alat)
               b(1) = (  1.024198  0.590577  0.000000 )
               b(2) = (  0.000021  1.181785  0.000000 )
               b(3) = (  0.000000  0.000000  0.125000 )

     PseudoPot. # 1 for Mo read from file:
     /shared/home/as3359/pseudo/Mo.pbesol-spn-kjpaw_psl.1.0.0.UPF
     MD5 check sum: de57925cfc675213e43241dcc441eda8
     Pseudo is Projector augmented-wave + core cor, Zval = 14.0
     Generated using &quot;atomic&quot; code by A. Dal Corso  v.6.3
     Shape of augmentation charge: PSQ
     Using radial grid of 1229 points,  6 beta functions with:
                l(1) =   0
                l(2) =   0
                l(3) =   1
                l(4) =   1
                l(5) =   2
                l(6) =   2
     Q(r) pseudized with 0 coefficients

     PseudoPot. # 2 for S  read from file:
     /shared/home/as3359/pseudo/S.pbesol-nl-kjpaw_psl.1.0.0.UPF
     MD5 check sum: bf3db50ec3f960682bbc396f1aadd1dd
     Pseudo is Projector augmented-wave + core cor, Zval =  6.0
     Generated using &quot;atomic&quot; code by A. Dal Corso  v.6.3
     Shape of augmentation charge: PSQ
     Using radial grid of 1151 points,  4 beta functions with:
                l(1) =   0
                l(2) =   0
                l(3) =   1
                l(4) =   1
     Q(r) pseudized with 0 coefficients

     atomic species   valence    mass     pseudopotential
        Mo            14.00    95.94000     Mo( 1.00)
        S              6.00    32.06500     S ( 1.00)

      2 Sym. Ops. (no inversion) found ( 1 have fractional translation)

   Cartesian axes

     site n.     atom                  positions (alat units)
         1           Mo  tau(   1) = (   0.0000000   0.0000000   1.2000000  )
         2           S   tau(   2) = (   0.4883508   0.2821722   1.6000000  )
         3           S   tau(   3) = (   0.4883508   0.2821722   0.8000000  )
         4           Mo  tau(   4) = (   0.0000000   0.0000000   2.8000000  )
         5           S   tau(   5) = (   0.4883508   0.2821722   3.2000000  )
         6           S   tau(   6) = (   0.4883508   0.2821722   2.4000000  )

     number of k points=    74
                       cart. coord. in units 2pi/alat
        k(    1) = (   0.0000000   0.0000000   0.0000000), wk =   0.0138889
        k(    2) = (   0.0000017   0.0984820   0.0000000), wk =   0.0277778
        k(    3) = (   0.0000035   0.1969641   0.0000000), wk =   0.0277778
        k(    4) = (   0.0000052   0.2954461   0.0000000), wk =   0.0277778
        k(    5) = (   0.0000070   0.3939282   0.0000000), wk =   0.0277778
        k(    6) = (   0.0000087   0.4924102   0.0000000), wk =   0.0277778
        k(    7) = (  -0.0000105  -0.5908923   0.0000000), wk =   0.0138889
        k(    8) = (   0.0853498   0.0492147   0.0000000), wk =   0.0277778
        k(    9) = (   0.0853516   0.1476968   0.0000000), wk =   0.0277778
        k(   10) = (   0.0853533   0.2461788   0.0000000), wk =   0.0277778
        k(   11) = (   0.0853550   0.3446609   0.0000000), wk =   0.0277778
        k(   12) = (   0.0853568   0.4431429   0.0000000), wk =   0.0277778
        k(   13) = (   0.0853585   0.5416249   0.0000000), wk =   0.0277778
        k(   14) = (   0.0853394  -0.5416775   0.0000000), wk =   0.0277778
        k(   15) = (   0.0853411  -0.4431955   0.0000000), wk =   0.0277778
        k(   16) = (   0.0853428  -0.3447135   0.0000000), wk =   0.0277778
        k(   17) = (   0.0853446  -0.2462314   0.0000000), wk =   0.0277778
        k(   18) = (   0.0853463  -0.1477494   0.0000000), wk =   0.0277778
        k(   19) = (   0.0853481  -0.0492673   0.0000000), wk =   0.0277778
        k(   20) = (   0.1706996   0.0984294   0.0000000), wk =   0.0277778
        k(   21) = (   0.1707014   0.1969115   0.0000000), wk =   0.0277778
        k(   22) = (   0.1707031   0.2953935   0.0000000), wk =   0.0277778
        k(   23) = (   0.1707049   0.3938756   0.0000000), wk =   0.0277778
        k(   24) = (   0.1707066   0.4923576   0.0000000), wk =   0.0277778
        k(   25) = (   0.1707083   0.5908397   0.0000000), wk =   0.0277778
        k(   26) = (   0.1706892  -0.4924628   0.0000000), wk =   0.0277778
        k(   27) = (   0.1706909  -0.3939808   0.0000000), wk =   0.0277778
        k(   28) = (   0.1706927  -0.2954987   0.0000000), wk =   0.0277778
        k(   29) = (   0.1706944  -0.1970167   0.0000000), wk =   0.0277778
        k(   30) = (   0.1706961  -0.0985346   0.0000000), wk =   0.0277778
        k(   31) = (   0.1706979  -0.0000526   0.0000000), wk =   0.0277778
        k(   32) = (   0.2560494   0.1476442   0.0000000), wk =   0.0277778
        k(   33) = (   0.2560512   0.2461262   0.0000000), wk =   0.0277778
        k(   34) = (   0.2560529   0.3446082   0.0000000), wk =   0.0277778
        k(   35) = (   0.2560547   0.4430903   0.0000000), wk =   0.0277778
        k(   36) = (   0.2560564   0.5415723   0.0000000), wk =   0.0277778
        k(   37) = (   0.2560582   0.6400544   0.0000000), wk =   0.0277778
        k(   38) = (   0.2560390  -0.4432481   0.0000000), wk =   0.0277778
        k(   39) = (   0.2560407  -0.3447661   0.0000000), wk =   0.0277778
        k(   40) = (   0.2560425  -0.2462840   0.0000000), wk =   0.0277778
        k(   41) = (   0.2560442  -0.1478020   0.0000000), wk =   0.0277778
        k(   42) = (   0.2560460  -0.0493199   0.0000000), wk =   0.0277778
        k(   43) = (   0.2560477   0.0491621   0.0000000), wk =   0.0277778
        k(   44) = (   0.3413993   0.1968589   0.0000000), wk =   0.0277778
        k(   45) = (   0.3414010   0.2953409   0.0000000), wk =   0.0277778
        k(   46) = (   0.3414027   0.3938230   0.0000000), wk =   0.0277778
        k(   47) = (   0.3414045   0.4923050   0.0000000), wk =   0.0277778
        k(   48) = (   0.3414062   0.5907871   0.0000000), wk =   0.0277778
        k(   49) = (   0.3414080   0.6892691   0.0000000), wk =   0.0277778
        k(   50) = (   0.3413888  -0.3940334   0.0000000), wk =   0.0277778
        k(   51) = (   0.3413905  -0.2955513   0.0000000), wk =   0.0277778
        k(   52) = (   0.3413923  -0.1970693   0.0000000), wk =   0.0277778
        k(   53) = (   0.3413940  -0.0985872   0.0000000), wk =   0.0277778
        k(   54) = (   0.3413958  -0.0001052   0.0000000), wk =   0.0277778
        k(   55) = (   0.3413975   0.0983768   0.0000000), wk =   0.0277778
        k(   56) = (   0.4267491   0.2460736   0.0000000), wk =   0.0277778
        k(   57) = (   0.4267508   0.3445556   0.0000000), wk =   0.0277778
        k(   58) = (   0.4267526   0.4430377   0.0000000), wk =   0.0277778
        k(   59) = (   0.4267543   0.5415197   0.0000000), wk =   0.0277778
        k(   60) = (   0.4267560   0.6400018   0.0000000), wk =   0.0277778
        k(   61) = (   0.4267578   0.7384838   0.0000000), wk =   0.0277778
        k(   62) = (   0.4267386  -0.3448187   0.0000000), wk =   0.0277778
        k(   63) = (   0.4267404  -0.2463366   0.0000000), wk =   0.0277778
        k(   64) = (   0.4267421  -0.1478546   0.0000000), wk =   0.0277778
        k(   65) = (   0.4267438  -0.0493725   0.0000000), wk =   0.0277778
        k(   66) = (   0.4267456   0.0491095   0.0000000), wk =   0.0277778
        k(   67) = (   0.4267473   0.1475916   0.0000000), wk =   0.0277778
        k(   68) = (  -0.5120989  -0.2952883   0.0000000), wk =   0.0138889
        k(   69) = (  -0.5120971  -0.1968063   0.0000000), wk =   0.0277778
        k(   70) = (  -0.5120954  -0.0983242   0.0000000), wk =   0.0277778
        k(   71) = (  -0.5120937   0.0001578   0.0000000), wk =   0.0277778
        k(   72) = (  -0.5120919   0.0986398   0.0000000), wk =   0.0277778
        k(   73) = (  -0.5120902   0.1971219   0.0000000), wk =   0.0277778
        k(   74) = (  -0.5121093  -0.8861806   0.0000000), wk =   0.0138889

     Initial potential from superposition of free atoms

     starting charge   51.99828, renormalised to   52.00000

     negative rho (up, down):  3.401E-04 0.000E+00
     Starting wfcs are   36 randomized atomic wfcs
     Checking if some PAW data can be deallocated...

     Self-consistent Calculation

     iteration #  1     ecut=    60.00 Ry     beta= 0.30
     Davidson diagonalization with overlap
     ethr =  1.00E-02,  avg # of iterations =  2.0

     Threshold (ethr) on eigenvalues was too large:
     Diagonalizing with lowered threshold

     Davidson diagonalization with overlap
     ethr =  3.91E-04,  avg # of iterations =  4.3

     negative rho (up, down):  3.585E-04 0.000E+00

     total energy              =    -979.14610619 Ry
     estimated scf accuracy    <       0.29705356 Ry

[...]

     iteration # 11     ecut=    60.00 Ry     beta= 0.30
     Davidson diagonalization with overlap
     c_bands:  1 eigenvalues not converged
     ethr =  1.11E-07,  avg # of iterations =  4.1

[...]

     End of self-consistent calculation

          k = 0.0000 0.0000 0.0000 ( 11709 PWs)   bands (ev):

   -58.9946 -58.9945 -33.3025 -33.3016 -33.1489 -33.1489 -33.1475 -33.1475
   -14.0578 -13.6893 -11.4205 -10.6442  -5.8972  -4.6052  -2.9983  -2.9904
[...]
   0.00000214   0.00094109   0.00000000            0.31      138.44        0.00
   0.00000000   0.00000000   0.00229431            0.00        0.00      337.50

     BFGS Geometry Optimization
     Energy error            =      0.0E+00 Ry
     Gradient error          =      3.0E-01 Ry/Bohr
     Cell gradient error     =      1.4E+02 kbar

     number of scf cycles    =   1
     number of bfgs steps    =   0

     enthalpy           new  =    -979.1690222003 Ry

     new trust radius        =       0.3016719218 bohr
     new conv_thr            =            1.0E-12 Ry

     new unit-cell volume =   1550.05902 a.u.^3 (   229.69505 Ang^3 )
     density =      2.31439 g/cm^3

CELL_PARAMETERS (alat=  6.07200000)
   0.999313618   0.000034454   0.000000000
  -0.499344745   0.866069050   0.000000000
   0.000000000   0.000000000   8.000000000

ATOMIC_POSITIONS (crystal)
Mo            0.0000000000        0.0000000000        0.1500262193    0   0   1
S             0.6668746694        0.3334086167        0.2041286400
S             0.6668451324        0.3334272217        0.0937896982
Mo            0.0000000000        0.0000000000        0.3499737807    0   0   1
S             0.6668451316        0.3334272188        0.4062103018
S             0.6668746702        0.3334086196        0.2958713600

     Writing output data file /scratch/as3359/MoS2_loop/Ta.save/
     NEW-OLD atomic charge density approx. for the potential

     negative rho (up, down):  2.549E-04 0.000E+00
     extrapolated charge   54.36096, renormalised to   52.00000

[...]

     Energy error            =      1.8E-01 Ry
     Gradient error          =      8.9E-02 Ry/Bohr
     Cell gradient error     =      2.0E+01 kbar

[...]

     enthalpy           old  =    -979.1690222003 Ry
     enthalpy           new  =    -979.3535012026 Ry

     CASE: enthalpy          _new < enthalpy          _old

[...]

     iteration #  1     ecut=    60.00 Ry     beta= 0.30
     Davidson diagonalization with overlap
     c_bands:  2 eigenvalues not converged
     c_bands:  2 eigenvalues not converged
     c_bands:  2 eigenvalues not converged
     c_bands:  2 eigenvalues not converged
     c_bands:  2 eigenvalues not converged
     c_bands:  2 eigenvalues not converged
     ethr =  1.00E-06,  avg # of iterations = 15.6

[...]

     number of scf cycles    =  18
     number of bfgs steps    =  17

     enthalpy           old  =    -979.5119040925 Ry
     enthalpy           new  =    -979.5119222699 Ry

     CASE: enthalpy          _new < enthalpy          _old

     new trust radius        =       0.0563361465 bohr
     new conv_thr            =            1.0E-14 Ry

     new unit-cell volume =   1480.03275 a.u.^3 (   219.31823 Ang^3 )
     density =      2.42390 g/cm^3

[...]

ATOMIC_POSITIONS (crystal)
Mo            0.0000000000        0.0000000000        0.1082238820    0   0   1
S             0.6666964726        0.3333708491        0.1689374133
S             0.6667148946        0.3333519752        0.0475122094
Mo            0.0000000000        0.0000000000        0.3917761180    0   0   1
S             0.6667148938        0.3333519723        0.4524877906
S             0.6666964734        0.3333708520        0.3310625867

     Writing output data file /scratch/as3359/MoS2_loop/Ta.save/
     NEW-OLD atomic charge density approx. for the potential

     negative rho (up, down):  3.436E-04 0.000E+00
     extrapolated charge   51.95812, renormalised to   52.00000

[...]

     Energy error            =      9.8E-06 Ry
     Gradient error          =      3.8E-04 Ry/Bohr
     Cell gradient error     =      1.4E-01 kbar

     bfgs converged in  19 scf cycles and  18 bfgs steps
     (criteria: energy <  1.0E-04 Ry, force <  1.0E-03Ry/Bohr, cell <  5.0E-01kbar)

     End of BFGS Geometry Optimization

     Final enthalpy           =    -979.5119320976 Ry

     File /scratch/as3359/MoS2_loop/Ta.bfgs deleted, as requested
Begin final coordinates
     new unit-cell volume =   1480.03275 a.u.^3 (   219.31823 Ang^3 )
     density =      2.42390 g/cm^3

CELL_PARAMETERS (alat=  6.07200000)
   0.976797941  -0.000201857   0.000000000
  -0.488298690   0.846122243   0.000000000
   0.000000000   0.000000000   8.000000000

ATOMIC_POSITIONS (crystal)
Mo            0.0000000000        0.0000000000        0.1082238820    0   0   1
S             0.6666964726        0.3333708491        0.1689374133
S             0.6667148946        0.3333519752        0.0475122094
Mo            0.0000000000        0.0000000000        0.3917761180    0   0   1
S             0.6667148938        0.3333519723        0.4524877906
S             0.6666964734        0.3333708520        0.3310625867
End final coordinates

     Writing output data file /scratch/as3359/MoS2_loop/Ta.save/

     Final scf calculation at the relaxed structure.
     The G-vectors are recalculated for the final unit cell
     Results may differ from those at the preceding step.

     Using Slab Decomposition

     bravais-lattice index     =            0
     lattice parameter (alat)  =       6.0720  a.u.
     unit-cell volume          =    1480.0328 (a.u.)^3
     number of atoms/cell      =            6
     number of atomic types    =            2
     number of electrons       =        52.00
     number of Kohn-Sham states=           26
     kinetic-energy cutoff     =      60.0000  Ry
     charge density cutoff     =     300.0000  Ry
     scf convergence threshold =      1.0E-14
     mixing beta               =       0.3000
     number of iterations used =            8  plain     mixing
     press convergence thresh. =      5.0E-01
     Exchange-correlation= SLA  PW   PSX  PSC
                           (   1   4  10   8   0   0   0)

     celldm(1)=   6.072000  celldm(2)=   0.000000  celldm(3)=   0.000000
     celldm(4)=   0.000000  celldm(5)=   0.000000  celldm(6)=   0.000000

     crystal axes: (cart. coord. in units of alat)
               a(1) = (   0.976798  -0.000202   0.000000 )
               a(2) = (  -0.488299   0.846122   0.000000 )
               a(3) = (   0.000000   0.000000   8.000000 )

     reciprocal axes: (cart. coord. in units 2 pi/alat)
               b(1) = (  1.023875  0.590880  0.000000 )
               b(2) = (  0.000244  1.182003  0.000000 )
               b(3) = (  0.000000  0.000000  0.125000 )

     PseudoPot. # 1 for Mo read from file:
     /shared/home/as3359/pseudo/Mo.pbesol-spn-kjpaw_psl.1.0.0.UPF
     MD5 check sum: de57925cfc675213e43241dcc441eda8
     Pseudo is Projector augmented-wave + core cor, Zval = 14.0
     Generated using &quot;atomic&quot; code by A. Dal Corso  v.6.3
     Shape of augmentation charge: PSQ
     Using radial grid of 1229 points,  6 beta functions with:
                l(1) =   0
                l(2) =   0
                l(3) =   1
                l(4) =   1
                l(5) =   2
                l(6) =   2
     Q(r) pseudized with 0 coefficients

     PseudoPot. # 2 for S  read from file:
     /shared/home/as3359/pseudo/S.pbesol-nl-kjpaw_psl.1.0.0.UPF
     MD5 check sum: bf3db50ec3f960682bbc396f1aadd1dd
     Pseudo is Projector augmented-wave + core cor, Zval =  6.0
     Generated using &quot;atomic&quot; code by A. Dal Corso  v.6.3
     Shape of augmentation charge: PSQ
     Using radial grid of 1151 points,  4 beta functions with:
                l(1) =   0
                l(2) =   0
                l(3) =   1
                l(4) =   1
     Q(r) pseudized with 0 coefficients

     atomic species   valence    mass     pseudopotential
        Mo            14.00    95.94000     Mo( 1.00)
        S              6.00    32.06500     S ( 1.00)

      2 Sym. Ops. (no inversion) found ( 1 have fractional translation)

   Cartesian axes

     site n.     atom                  positions (alat units)
         1           Mo  tau(   1) = (   0.0000000   0.0000000   0.8657911  )
         2           S   tau(   2) = (   0.4884432   0.2819379   1.3514993  )
         3           S   tau(   3) = (   0.4884704   0.2819219   0.3800977  )
         4           Mo  tau(   4) = (   0.0000000   0.0000000   3.1342089  )
         5           S   tau(   5) = (   0.4884704   0.2819219   3.6199023  )
         6           S   tau(   6) = (   0.4884432   0.2819379   2.6485007  )

     number of k points=    74
                       cart. coord. in units 2pi/alat
        k(    1) = (   0.0000000   0.0000000   0.0000000), wk =   0.0138889
        k(    2) = (   0.0000204   0.0985003   0.0000000), wk =   0.0277778
        k(    3) = (   0.0000407   0.1970005   0.0000000), wk =   0.0277778
        k(    4) = (   0.0000611   0.2955008   0.0000000), wk =   0.0277778
        k(    5) = (   0.0000814   0.3940011   0.0000000), wk =   0.0277778
        k(    6) = (   0.0001018   0.4925014   0.0000000), wk =   0.0277778
        k(    7) = (  -0.0001221  -0.5910016   0.0000000), wk =   0.0138889
        k(    8) = (   0.0853229   0.0492400   0.0000000), wk =   0.0277778
        k(    9) = (   0.0853433   0.1477403   0.0000000), wk =   0.0277778
        k(   10) = (   0.0853637   0.2462406   0.0000000), wk =   0.0277778
        k(   11) = (   0.0853840   0.3447408   0.0000000), wk =   0.0277778
        k(   12) = (   0.0854044   0.4432411   0.0000000), wk =   0.0277778
        k(   13) = (   0.0854247   0.5417414   0.0000000), wk =   0.0277778
        k(   14) = (   0.0852008  -0.5417616   0.0000000), wk =   0.0277778
        k(   15) = (   0.0852212  -0.4432613   0.0000000), wk =   0.0277778
        k(   16) = (   0.0852415  -0.3447611   0.0000000), wk =   0.0277778
        k(   17) = (   0.0852619  -0.2462608   0.0000000), wk =   0.0277778
        k(   18) = (   0.0852822  -0.1477605   0.0000000), wk =   0.0277778
        k(   19) = (   0.0853026  -0.0492602   0.0000000), wk =   0.0277778
        k(   20) = (   0.1706459   0.0984800   0.0000000), wk =   0.0277778
        k(   21) = (   0.1706662   0.1969803   0.0000000), wk =   0.0277778
        k(   22) = (   0.1706866   0.2954806   0.0000000), wk =   0.0277778
        k(   23) = (   0.1707069   0.3939809   0.0000000), wk =   0.0277778
        k(   24) = (   0.1707273   0.4924811   0.0000000), wk =   0.0277778
        k(   25) = (   0.1707477   0.5909814   0.0000000), wk =   0.0277778
        k(   26) = (   0.1705237  -0.4925216   0.0000000), wk =   0.0277778
        k(   27) = (   0.1705441  -0.3940213   0.0000000), wk =   0.0277778
        k(   28) = (   0.1705645  -0.2955210   0.0000000), wk =   0.0277778
        k(   29) = (   0.1705848  -0.1970208   0.0000000), wk =   0.0277778
        k(   30) = (   0.1706052  -0.0985205   0.0000000), wk =   0.0277778
        k(   31) = (   0.1706255  -0.0000202   0.0000000), wk =   0.0277778
        k(   32) = (   0.2559688   0.1477201   0.0000000), wk =   0.0277778
        k(   33) = (   0.2559892   0.2462203   0.0000000), wk =   0.0277778
        k(   34) = (   0.2560095   0.3447206   0.0000000), wk =   0.0277778
        k(   35) = (   0.2560299   0.4432209   0.0000000), wk =   0.0277778
        k(   36) = (   0.2560502   0.5417212   0.0000000), wk =   0.0277778
        k(   37) = (   0.2560706   0.6402214   0.0000000), wk =   0.0277778
        k(   38) = (   0.2558467  -0.4432816   0.0000000), wk =   0.0277778
        k(   39) = (   0.2558670  -0.3447813   0.0000000), wk =   0.0277778
        k(   40) = (   0.2558874  -0.2462810   0.0000000), wk =   0.0277778
        k(   41) = (   0.2559078  -0.1477807   0.0000000), wk =   0.0277778
        k(   42) = (   0.2559281  -0.0492805   0.0000000), wk =   0.0277778
        k(   43) = (   0.2559485   0.0492198   0.0000000), wk =   0.0277778
        k(   44) = (   0.3412918   0.1969601   0.0000000), wk =   0.0277778
        k(   45) = (   0.3413121   0.2954604   0.0000000), wk =   0.0277778
        k(   46) = (   0.3413325   0.3939606   0.0000000), wk =   0.0277778
        k(   47) = (   0.3413528   0.4924609   0.0000000), wk =   0.0277778
        k(   48) = (   0.3413732   0.5909612   0.0000000), wk =   0.0277778
        k(   49) = (   0.3413935   0.6894615   0.0000000), wk =   0.0277778
        k(   50) = (   0.3411696  -0.3940415   0.0000000), wk =   0.0277778
        k(   51) = (   0.3411900  -0.2955413   0.0000000), wk =   0.0277778
        k(   52) = (   0.3412103  -0.1970410   0.0000000), wk =   0.0277778
        k(   53) = (   0.3412307  -0.0985407   0.0000000), wk =   0.0277778
        k(   54) = (   0.3412511  -0.0000404   0.0000000), wk =   0.0277778
        k(   55) = (   0.3412714   0.0984598   0.0000000), wk =   0.0277778
        k(   56) = (   0.4266147   0.2462001   0.0000000), wk =   0.0277778
        k(   57) = (   0.4266351   0.3447004   0.0000000), wk =   0.0277778
        k(   58) = (   0.4266554   0.4432007   0.0000000), wk =   0.0277778
        k(   59) = (   0.4266758   0.5417009   0.0000000), wk =   0.0277778
        k(   60) = (   0.4266961   0.6402012   0.0000000), wk =   0.0277778
        k(   61) = (   0.4267165   0.7387015   0.0000000), wk =   0.0277778
        k(   62) = (   0.4264926  -0.3448015   0.0000000), wk =   0.0277778
        k(   63) = (   0.4265129  -0.2463012   0.0000000), wk =   0.0277778
        k(   64) = (   0.4265333  -0.1478010   0.0000000), wk =   0.0277778
        k(   65) = (   0.4265536  -0.0493007   0.0000000), wk =   0.0277778
        k(   66) = (   0.4265740   0.0491996   0.0000000), wk =   0.0277778
        k(   67) = (   0.4265943   0.1476998   0.0000000), wk =   0.0277778
        k(   68) = (  -0.5119376  -0.2954401   0.0000000), wk =   0.0138889
        k(   69) = (  -0.5119173  -0.1969399   0.0000000), wk =   0.0277778
        k(   70) = (  -0.5118969  -0.0984396   0.0000000), wk =   0.0277778
        k(   71) = (  -0.5118766   0.0000607   0.0000000), wk =   0.0277778
        k(   72) = (  -0.5118562   0.0985609   0.0000000), wk =   0.0277778
        k(   73) = (  -0.5118359   0.1970612   0.0000000), wk =   0.0277778
        k(   74) = (  -0.5120598  -0.8864418   0.0000000), wk =   0.0138889

     Initial potential from superposition of free atoms

     starting charge   51.99828, renormalised to   52.00000

     negative rho (up, down):  2.689E-04 0.000E+00
     Starting wfcs are   36 randomized atomic wfcs
     Checking if some PAW data can be deallocated...

     Self-consistent Calculation

[...]

     total energy              =    -979.51193484 Ry
     estimated scf accuracy    <          2.9E-14 Ry

     iteration # 44     ecut=    60.00 Ry     beta= 0.30
     Davidson diagonalization with overlap
     ethr =  1.00E-13,  avg # of iterations =  1.0

[...]

     End of self-consistent calculation

[...]

          k = 0.4266 0.1477 0.0000 ( 11614 PWs)   bands (ev):

[...]

          k =-0.5121-0.8864 0.0000 ( 11612 PWs)   bands (ev):

   -58.7238 -58.7237 -33.1455 -33.1455 -32.8899 -32.8899 -32.8112 -32.8112
   -10.2503 -10.2395 -10.1208 -10.1087  -4.0182  -4.0003  -3.0240  -2.9940
    -2.2575  -2.1970  -1.2431  -1.2404  -0.0662   0.0780   1.0743   1.0826
     1.2462   1.3243

     highest occupied level (ev):     1.9981

!    total energy              =    -979.51193484 Ry

     total all-electron energy =    -19376.427625 Ry
     estimated scf accuracy    <          8.6E-15 Ry

     The total energy is the sum of the following terms:
     one-electron contribution =   -2375.07741469 Ry
     hartree contribution      =    1198.19305597 Ry
     xc contribution           =     -59.04876585 Ry
     ewald contribution        =     882.20390644 Ry
     one-center paw contrib.   =    -625.78271672 Ry

     convergence has been achieved in  44 iterations

     negative rho (up, down):  3.556E-04 0.000E+00

     Forces acting on atoms (cartesian axes, Ry/au):

     atom    1 type  1   force =     0.00004081    0.00003434   -0.00009433
     atom    2 type  2   force =    -0.00000402   -0.00002676   -0.00033915
     atom    3 type  2   force =    -0.00003679   -0.00000757    0.00038076
     atom    4 type  1   force =     0.00004081    0.00003434    0.00009433
     atom    5 type  2   force =    -0.00003679   -0.00000757   -0.00038076
     atom    6 type  2   force =    -0.00000402   -0.00002676    0.00033915

     Total force =     0.000736     Total SCF correction =     0.000001

     Computing stress (Cartesian axis) and pressure

     negative rho (up, down):  3.556E-04 0.000E+00
          total   stress  (Ry/bohr**3)                   (kbar)     P=       -0.68
  -0.00000041   0.00000022   0.00000000           -0.06        0.03        0.00
   0.00000022  -0.00000097   0.00000000            0.03       -0.14        0.00
   0.00000000   0.00000000  -0.00001256            0.00        0.00       -1.85

     Writing output data file /scratch/as3359/MoS2_loop/Ta.save/

     General routines

     Parallel routines

   This run was terminated on:  12:39:14   8Apr2022

   JOB DONE.