     Program PWSCF v.6.8 starts on 24Mar2022 at 20:29:57

     R & G space division:  proc/nbgrp/npool/nimage =       2

     Reading input from Ta2CH2.vcrelax.in

     Current dimensions of program PWSCF are:
     Max number of different atomic species (ntypx) = 10
     Max number of k-points (npk) =  40000
     Max angular momentum in pseudopotentials (lmaxx) =  4
     file Ta.pbesol-spfn-rrkjus_psl.1.0.0.UPF: wavefunction(s)  5S 5P renormalized

     Subspace diagonalization in iterative solution of the eigenvalue problem:
     a serial algorithm will be used

     Using Slab Decomposition

     bravais-lattice index     =            0
     lattice parameter (alat)  =       5.5500  a.u.
     unit-cell volume          =    1603.2166 (a.u.)^3
     number of atoms/cell      =            5
     number of atomic types    =            3
     number of electrons       =        60.00
     number of Kohn-Sham states=           36
     kinetic-energy cutoff     =      70.0000  Ry
     charge density cutoff     =     700.0000  Ry
     scf convergence threshold =      1.0E-12
     mixing beta               =       0.7000
     number of iterations used =            8  plain     mixing
     energy convergence thresh.=      1.0E-04
     force convergence thresh. =      1.0E-03
     press convergence thresh. =      5.0E-01
     Exchange-correlation= PBESOL
                           (   1   4  10   8   0   0   0)
     nstep                     =           50

     celldm(1)=   5.550000  celldm(2)=   0.000000  celldm(3)=   0.000000
     celldm(4)=   0.000000  celldm(5)=   0.000000  celldm(6)=   0.000000

     crystal axes: (cart. coord. in units of alat)
               a(1) = (   1.040618   0.000000   0.000000 )
               a(2) = (  -0.520309   0.901202   0.000000 )
               a(3) = (   0.000000   0.000000  10.000000 )

     reciprocal axes: (cart. coord. in units 2 pi/alat)
               b(1) = (  0.960967  0.554815  0.000000 )
               b(2) = (  0.000000  1.109630  0.000000 )
               b(3) = (  0.000000  0.000000  0.100000 )

     PseudoPot. # 1 for Ta read from file:
     /shared/home/as3359/pseudo/Ta.pbesol-spfn-rrkjus_psl.1.0.0.UPF
     MD5 check sum: f099565ffaca9b150a52e9412a28e20b
     Pseudo is Ultrasoft + core correction, Zval = 27.0
     Generated using &quot;atomic&quot; code by A. Dal Corso  v.6.3
     Using radial grid of 1273 points,  8 beta functions with:
                l(1) =   0
                l(2) =   0
                l(3) =   1
                l(4) =   1
                l(5) =   2
                l(6) =   2
                l(7) =   3
                l(8) =   3
     Q(r) pseudized with 0 coefficients

     PseudoPot. # 2 for C  read from file:
     /shared/home/as3359/pseudo/C.pbesol-n-rrkjus_psl.1.0.0.UPF
     MD5 check sum: 05995be603a8a7c99da3dc4413f31573
     Pseudo is Ultrasoft + core correction, Zval =  4.0
     Generated using &quot;atomic&quot; code by A. Dal Corso  v.6.3MaX
     Using radial grid of 1073 points,  4 beta functions with:
                l(1) =   0
                l(2) =   0
                l(3) =   1
                l(4) =   1
     Q(r) pseudized with 0 coefficients

     PseudoPot. # 3 for H  read from file:
     /shared/home/as3359/pseudo/H.pbesol-rrkjus_psl.0.1.UPF
     MD5 check sum: 1dbb1a5c48b1283557b8117eb856a7ca
     Pseudo is Ultrasoft, Zval =  1.0
     Generated using "atomic" code by A. Dal Corso  v.5.0.2 svn rev. 9415
     Using radial grid of  929 points,  2 beta functions with:
                l(1) =   0
                l(2) =   0
     Q(r) pseudized with 0 coefficients

     atomic species   valence    mass     pseudopotential
        Ta            27.00   180.94788     Ta( 1.00)
        C              4.00    12.01070     C ( 1.00)
        H              1.00     1.00000     H ( 1.00)

     No symmetry found

   Cartesian axes

     site n.     atom                  positions (alat units)
         1           C   tau(   1) = (   0.0000000   0.0000000   0.0000000  )
         2           Ta  tau(   2) = (   0.5203090   0.3004005  -0.4101496  )
         3           Ta  tau(   3) = (  -0.0000000   0.6008011   0.4101496  )
         4           H   tau(   4) = (  -0.0031880  -0.0004963   0.9240391  )
         5           H   tau(   5) = (  -0.0011642   0.0030090  -0.9240391  )

     number of k points=    74  Marzari-Vanderbilt smearing, width (Ry)=  0.0010
                       cart. coord. in units 2pi/alat
        k(    1) = (   0.0000000   0.0000000   0.0000000), wk =   0.0138889
        k(    2) = (   0.0000000   0.0924691   0.0000000), wk =   0.0277778
        k(    3) = (   0.0000000   0.1849383   0.0000000), wk =   0.0277778
        k(    4) = (   0.0000000   0.2774074   0.0000000), wk =   0.0277778
        k(    5) = (   0.0000000   0.3698766   0.0000000), wk =   0.0277778
        k(    6) = (   0.0000000   0.4623457   0.0000000), wk =   0.0277778
        k(    7) = (   0.0000000  -0.5548148   0.0000000), wk =   0.0138889
        k(    8) = (   0.0800806   0.1387037   0.0000000), wk =   0.0277778
        k(    9) = (   0.0800806   0.2311728   0.0000000), wk =   0.0277778
        k(   10) = (   0.0800806   0.3236420   0.0000000), wk =   0.0277778
        k(   11) = (   0.0800806   0.4161111   0.0000000), wk =   0.0277778
        k(   12) = (   0.0800806   0.5085803   0.0000000), wk =   0.0277778
        k(   13) = (   0.1601612   0.2774074   0.0000000), wk =   0.0277778
        k(   14) = (   0.1601612   0.3698766   0.0000000), wk =   0.0277778
        k(   15) = (   0.1601612   0.4623457   0.0000000), wk =   0.0277778
        k(   16) = (   0.1601612   0.5548148   0.0000000), wk =   0.0277778
        k(   17) = (   0.2402419   0.4161111   0.0000000), wk =   0.0277778
        k(   18) = (   0.2402419   0.5085803   0.0000000), wk =   0.0277778
        k(   19) = (   0.3203225   0.5548148   0.0000000), wk =   0.0277778
        k(   20) = (  -0.0800806   0.0462346   0.0000000), wk =   0.0277778
        k(   21) = (   0.0800806   0.0462346   0.0000000), wk =   0.0277778
        k(   22) = (  -0.1601612   0.0924691   0.0000000), wk =   0.0277778
        k(   23) = (   0.1601612   0.0924691   0.0000000), wk =   0.0277778
        k(   24) = (  -0.2402419   0.1387037   0.0000000), wk =   0.0277778
        k(   25) = (   0.2402419   0.1387037   0.0000000), wk =   0.0277778
        k(   26) = (  -0.3203225   0.1849383   0.0000000), wk =   0.0277778
        k(   27) = (   0.3203225   0.1849383   0.0000000), wk =   0.0277778
        k(   28) = (  -0.4004031   0.2311728   0.0000000), wk =   0.0277778
        k(   29) = (   0.4004031   0.2311728   0.0000000), wk =   0.0277778
        k(   30) = (   0.4804837  -0.2774074   0.0000000), wk =   0.0138889
        k(   31) = (  -0.4804837  -0.2774074   0.0000000), wk =   0.0138889
        k(   32) = (  -0.0800806   0.1387037   0.0000000), wk =   0.0277778
        k(   33) = (   0.1601612  -0.0000000   0.0000000), wk =   0.0277778
        k(   34) = (  -0.0800806   0.2311728   0.0000000), wk =   0.0277778
        k(   35) = (  -0.1601612   0.1849383   0.0000000), wk =   0.0277778
        k(   36) = (   0.2402419   0.0462346   0.0000000), wk =   0.0277778
        k(   37) = (  -0.1601612  -0.1849383   0.0000000), wk =   0.0277778
        k(   38) = (   0.2402419  -0.0462346   0.0000000), wk =   0.0277778
        k(   39) = (  -0.0800806   0.3236420   0.0000000), wk =   0.0277778
        k(   40) = (  -0.2402419   0.2311728   0.0000000), wk =   0.0277778
        k(   41) = (   0.3203225   0.0924691   0.0000000), wk =   0.0277778
        k(   42) = (  -0.2402419  -0.2311728   0.0000000), wk =   0.0277778
        k(   43) = (   0.3203225  -0.0924691   0.0000000), wk =   0.0277778
        k(   44) = (  -0.0800806   0.4161111   0.0000000), wk =   0.0277778
        k(   45) = (  -0.3203225   0.2774074   0.0000000), wk =   0.0277778
        k(   46) = (   0.4004031   0.1387037   0.0000000), wk =   0.0277778
        k(   47) = (  -0.3203225  -0.2774074   0.0000000), wk =   0.0277778
        k(   48) = (   0.4004031  -0.1387037   0.0000000), wk =   0.0277778
        k(   49) = (  -0.0800806   0.5085803   0.0000000), wk =   0.0277778
        k(   50) = (  -0.4004031   0.3236420   0.0000000), wk =   0.0277778
        k(   51) = (   0.4804837   0.1849383   0.0000000), wk =   0.0277778
        k(   52) = (  -0.4004031  -0.3236420   0.0000000), wk =   0.0277778
        k(   53) = (   0.4804837  -0.1849383   0.0000000), wk =   0.0277778
        k(   54) = (  -0.1601612   0.2774074   0.0000000), wk =   0.0277778
        k(   55) = (   0.3203225  -0.0000000   0.0000000), wk =   0.0277778
        k(   56) = (  -0.1601612   0.3698766   0.0000000), wk =   0.0277778
        k(   57) = (  -0.2402419   0.3236420   0.0000000), wk =   0.0277778
        k(   58) = (   0.4004031   0.0462346   0.0000000), wk =   0.0277778
        k(   59) = (  -0.2402419  -0.3236420   0.0000000), wk =   0.0277778
        k(   60) = (   0.4004031  -0.0462346   0.0000000), wk =   0.0277778
        k(   61) = (  -0.1601612   0.4623457   0.0000000), wk =   0.0277778
        k(   62) = (  -0.3203225   0.3698766   0.0000000), wk =   0.0277778
        k(   63) = (   0.4804837   0.0924691   0.0000000), wk =   0.0277778
        k(   64) = (  -0.3203225  -0.3698766   0.0000000), wk =   0.0277778
        k(   65) = (   0.4804837  -0.0924691   0.0000000), wk =   0.0277778
        k(   66) = (  -0.4004031   0.4161111   0.0000000), wk =   0.0277778
        k(   67) = (   0.5605644   0.1387037   0.0000000), wk =   0.0277778
        k(   68) = (  -0.2402419   0.4161111   0.0000000), wk =   0.0277778
        k(   69) = (   0.4804837  -0.0000000   0.0000000), wk =   0.0277778
        k(   70) = (  -0.2402419   0.5085803   0.0000000), wk =   0.0277778
        k(   71) = (  -0.3203225   0.4623457   0.0000000), wk =   0.0277778
        k(   72) = (   0.5605644   0.0462346   0.0000000), wk =   0.0277778
        k(   73) = (  -0.3203225  -0.4623457   0.0000000), wk =   0.0277778
        k(   74) = (   0.5605644  -0.0462346   0.0000000), wk =   0.0277778

     Initial potential from superposition of free atoms

     starting charge   59.99840, renormalised to   60.00000

     negative rho (up, down):  4.496E-05 0.000E+00
     Starting wfcs are   40 randomized atomic wfcs

     Self-consistent Calculation

     iteration #  1     ecut=    70.00 Ry     beta= 0.70
     Davidson diagonalization with overlap
     ethr =  1.00E-02,  avg # of iterations =  2.0

     negative rho (up, down):  1.454E-05 0.000E+00

     total energy              =   -1375.07874734 Ry
     estimated scf accuracy    <       1.01814608 Ry

[...]

     iteration #  3     ecut=    70.00 Ry     beta= 0.70
     Davidson diagonalization with overlap
     ethr =  1.70E-03,  avg # of iterations =  4.0
     Minimization algorithm failed to find Fermi energy: reverting to bisection
     Possible cause: smearing is larger than the electronic band-gap.

[...]

     End of self-consistent calculation

          k = 0.0000 0.0000 0.0000 ( 15945 PWs)   bands (ev):

   -68.2200 -68.1713 -35.1985 -34.5958 -34.3862 -34.3862 -34.3179 -34.3179
[...]
     c_bands:  1 eigenvalues not converged
     c_bands:  2 eigenvalues not converged
     c_bands:  2 eigenvalues not converged
     c_bands:  2 eigenvalues not converged
     c_bands:  2 eigenvalues not converged
     c_bands:  2 eigenvalues not converged
     c_bands:  1 eigenvalues not converged
     c_bands:  1 eigenvalues not converged
     c_bands:  1 eigenvalues not converged
     c_bands:  1 eigenvalues not converged
     c_bands:  1 eigenvalues not converged
     c_bands:  2 eigenvalues not converged
     c_bands:  2 eigenvalues not converged
     c_bands:  2 eigenvalues not converged
     c_bands:  2 eigenvalues not converged
     c_bands:  2 eigenvalues not converged
     c_bands:  1 eigenvalues not converged
     c_bands:  1 eigenvalues not converged
     c_bands:  1 eigenvalues not converged
     c_bands:  1 eigenvalues not converged
     ethr =  1.00E-06,  avg # of iterations = 17.7

[...]

     Energy error            =      1.7E-02 Ry
     Gradient error          =      4.4E-02 Ry/Bohr
     Cell gradient error     =      2.4E+01 kbar

[...]

     enthalpy           old  =   -1375.6509247546 Ry
     enthalpy           new  =   -1375.6679377984 Ry

     CASE: enthalpy          _new < enthalpy          _old

[...]

     WARNING: integrated charge=    60.00004225, expected=    60.00000000

[...]

     WARNING: integrated charge=    60.00000845, expected=    60.00000000

[...]

     iteration # 23     ecut=    70.00 Ry     beta= 0.70
     Davidson diagonalization with overlap
     ethr =  1.42E-03,  avg # of iterations = 12.6
     Minimization algorithm failed to find Fermi energy: reverting to bisection
     Possible cause: smearing is larger than the electronic band-gap.

[...]

     number of scf cycles    =  11
     number of bfgs steps    =  10

     enthalpy           old  =   -1375.6972198625 Ry
     enthalpy           new  =   -1375.6973368481 Ry

     CASE: enthalpy          _new < enthalpy          _old

     new trust radius        =       0.0018238362 bohr
     new conv_thr            =            1.0E-14 Ry

     new unit-cell volume =   1533.23934 a.u.^3 (   227.20263 Ang^3 )
     density =      2.74736 g/cm^3

[...]

ATOMIC_POSITIONS (crystal)
C             0.0000000000        0.0000000000        0.0000000000    0   0   0
Ta            0.6674660044        0.3345297227       -0.0436451059
Ta            0.3322425188        0.6657482576        0.0436453238
H            -0.0026312695       -0.0017374135        0.0834193031
H             0.0016570831        0.0027689753       -0.0834193036

     Writing output data file /scratch/as3359/Ta2CH2-VCrelax/Ta.save/
     NEW-OLD atomic charge density approx. for the potential

     negative rho (up, down):  4.114E-05 0.000E+00
     extrapolated charge   59.98730, renormalised to   60.00000

[...]

     Energy error            =      2.8E-06 Ry
     Gradient error          =      5.6E-04 Ry/Bohr
     Cell gradient error     =      2.7E-01 kbar

     bfgs converged in  12 scf cycles and  11 bfgs steps
     (criteria: energy <  1.0E-04 Ry, force <  1.0E-03Ry/Bohr, cell <  5.0E-01kbar)

     End of BFGS Geometry Optimization

     Final enthalpy           =   -1375.6973396713 Ry

     File /scratch/as3359/Ta2CH2-VCrelax/Ta.bfgs deleted, as requested
Begin final coordinates
     new unit-cell volume =   1533.23934 a.u.^3 (   227.20263 Ang^3 )
     density =      2.74736 g/cm^3

CELL_PARAMETERS (alat=  5.55000000)
   1.017295083  -0.000177182   0.000000000
  -0.508801024   0.881713945   0.000000000
   0.000000000   0.000000000  10.000000000

ATOMIC_POSITIONS (crystal)
C             0.0000000000        0.0000000000        0.0000000000    0   0   0
Ta            0.6674660044        0.3345297227       -0.0436451059
Ta            0.3322425188        0.6657482576        0.0436453238
H            -0.0026312695       -0.0017374135        0.0834193031
H             0.0016570831        0.0027689753       -0.0834193036
End final coordinates

     Writing output data file /scratch/as3359/Ta2CH2-VCrelax/Ta.save/

     Final scf calculation at the relaxed structure.
     The G-vectors are recalculated for the final unit cell
     Results may differ from those at the preceding step.

     Using Slab Decomposition

     bravais-lattice index     =            0
     lattice parameter (alat)  =       5.5500  a.u.
     unit-cell volume          =    1533.2393 (a.u.)^3
     number of atoms/cell      =            5
     number of atomic types    =            3
     number of electrons       =        60.00
     number of Kohn-Sham states=           36
     kinetic-energy cutoff     =      70.0000  Ry
     charge density cutoff     =     700.0000  Ry
     scf convergence threshold =      1.0E-14
     mixing beta               =       0.7000
     number of iterations used =            8  plain     mixing
     press convergence thresh. =      5.0E-01
     Exchange-correlation= PBESOL
                           (   1   4  10   8   0   0   0)

     celldm(1)=   5.550000  celldm(2)=   0.000000  celldm(3)=   0.000000
     celldm(4)=   0.000000  celldm(5)=   0.000000  celldm(6)=   0.000000

     crystal axes: (cart. coord. in units of alat)
               a(1) = (   1.017295  -0.000177   0.000000 )
               a(2) = (  -0.508801   0.881714   0.000000 )
               a(3) = (   0.000000   0.000000  10.000000 )

     reciprocal axes: (cart. coord. in units 2 pi/alat)
               b(1) = (  0.983098  0.567305  0.000000 )
               b(2) = (  0.000198  1.134269  0.000000 )
               b(3) = (  0.000000  0.000000  0.100000 )

     PseudoPot. # 1 for Ta read from file:
     /shared/home/as3359/pseudo/Ta.pbesol-spfn-rrkjus_psl.1.0.0.UPF
     MD5 check sum: f099565ffaca9b150a52e9412a28e20b
     Pseudo is Ultrasoft + core correction, Zval = 27.0
     Generated using &quot;atomic&quot; code by A. Dal Corso  v.6.3
     Using radial grid of 1273 points,  8 beta functions with:
                l(1) =   0
                l(2) =   0
                l(3) =   1
                l(4) =   1
                l(5) =   2
                l(6) =   2
                l(7) =   3
                l(8) =   3
     Q(r) pseudized with 0 coefficients

     PseudoPot. # 2 for C  read from file:
     /shared/home/as3359/pseudo/C.pbesol-n-rrkjus_psl.1.0.0.UPF
     MD5 check sum: 05995be603a8a7c99da3dc4413f31573
     Pseudo is Ultrasoft + core correction, Zval =  4.0
     Generated using &quot;atomic&quot; code by A. Dal Corso  v.6.3MaX
     Using radial grid of 1073 points,  4 beta functions with:
                l(1) =   0
                l(2) =   0
                l(3) =   1
                l(4) =   1
     Q(r) pseudized with 0 coefficients

     PseudoPot. # 3 for H  read from file:
     /shared/home/as3359/pseudo/H.pbesol-rrkjus_psl.0.1.UPF
     MD5 check sum: 1dbb1a5c48b1283557b8117eb856a7ca
     Pseudo is Ultrasoft, Zval =  1.0
     Generated using "atomic" code by A. Dal Corso  v.5.0.2 svn rev. 9415
     Using radial grid of  929 points,  2 beta functions with:
                l(1) =   0
                l(2) =   0
     Q(r) pseudized with 0 coefficients

     atomic species   valence    mass     pseudopotential
        Ta            27.00   180.94788     Ta( 1.00)
        C              4.00    12.01070     C ( 1.00)
        H              1.00     1.00000     H ( 1.00)

     No symmetry found

   Cartesian axes

     site n.     atom                  positions (alat units)
         1           C   tau(   1) = (   0.0000000   0.0000000   0.0000000  )
         2           Ta  tau(   2) = (   0.5088008   0.2948413  -0.4364511  )
         3           Ta  tau(   3) = (  -0.0007447   0.5869407   0.4364532  )
         4           H   tau(   4) = (  -0.0017928  -0.0015314   0.8341930  )
         5           H   tau(   5) = (   0.0002769   0.0024412  -0.8341930  )

     number of k points=    74  Marzari-Vanderbilt smearing, width (Ry)=  0.0010
                       cart. coord. in units 2pi/alat
        k(    1) = (   0.0000000   0.0000000   0.0000000), wk =   0.0138889
        k(    2) = (   0.0000165   0.0945224   0.0000000), wk =   0.0277778
        k(    3) = (   0.0000329   0.1890448   0.0000000), wk =   0.0277778
        k(    4) = (   0.0000494   0.2835672   0.0000000), wk =   0.0277778
        k(    5) = (   0.0000659   0.3780896   0.0000000), wk =   0.0277778
        k(    6) = (   0.0000823   0.4726120   0.0000000), wk =   0.0277778
        k(    7) = (  -0.0000988  -0.5671343   0.0000000), wk =   0.0138889
        k(    8) = (   0.0819413   0.1417978   0.0000000), wk =   0.0277778
        k(    9) = (   0.0819577   0.2363202   0.0000000), wk =   0.0277778
        k(   10) = (   0.0819742   0.3308426   0.0000000), wk =   0.0277778
        k(   11) = (   0.0819907   0.4253650   0.0000000), wk =   0.0277778
        k(   12) = (   0.0820071   0.5198874   0.0000000), wk =   0.0277778
        k(   13) = (   0.1638826   0.2835957   0.0000000), wk =   0.0277778
        k(   14) = (   0.1638990   0.3781181   0.0000000), wk =   0.0277778
        k(   15) = (   0.1639155   0.4726405   0.0000000), wk =   0.0277778
        k(   16) = (   0.1639319   0.5671629   0.0000000), wk =   0.0277778
        k(   17) = (   0.2458238   0.4253935   0.0000000), wk =   0.0277778
        k(   18) = (   0.2458403   0.5199159   0.0000000), wk =   0.0277778
        k(   19) = (   0.3277651   0.5671914   0.0000000), wk =   0.0277778
        k(   20) = (  -0.0819084   0.0472469   0.0000000), wk =   0.0277778
        k(   21) = (   0.0819248   0.0472755   0.0000000), wk =   0.0277778
        k(   22) = (  -0.1638167   0.0944939   0.0000000), wk =   0.0277778
        k(   23) = (   0.1638496   0.0945509   0.0000000), wk =   0.0277778
        k(   24) = (  -0.2457251   0.1417408   0.0000000), wk =   0.0277778
        k(   25) = (   0.2457744   0.1418264   0.0000000), wk =   0.0277778
        k(   26) = (  -0.3276334   0.1889877   0.0000000), wk =   0.0277778
        k(   27) = (   0.3276993   0.1891018   0.0000000), wk =   0.0277778
        k(   28) = (  -0.4095418   0.2362347   0.0000000), wk =   0.0277778
        k(   29) = (   0.4096241   0.2363773   0.0000000), wk =   0.0277778
        k(   30) = (   0.4914501  -0.2834816   0.0000000), wk =   0.0138889
        k(   31) = (  -0.4915489  -0.2836527   0.0000000), wk =   0.0138889
        k(   32) = (  -0.0818919   0.1417693   0.0000000), wk =   0.0277778
        k(   33) = (   0.1638332   0.0000285   0.0000000), wk =   0.0277778
        k(   34) = (  -0.0818754   0.2362917   0.0000000), wk =   0.0277778
        k(   35) = (  -0.1638002   0.1890163   0.0000000), wk =   0.0277778
        k(   36) = (   0.2457580   0.0473040   0.0000000), wk =   0.0277778
        k(   37) = (  -0.1638661  -0.1890733   0.0000000), wk =   0.0277778
        k(   38) = (   0.2457415  -0.0472184   0.0000000), wk =   0.0277778
        k(   39) = (  -0.0818590   0.3308141   0.0000000), wk =   0.0277778
        k(   40) = (  -0.2457086   0.2362632   0.0000000), wk =   0.0277778
        k(   41) = (   0.3276828   0.0945794   0.0000000), wk =   0.0277778
        k(   42) = (  -0.2457909  -0.2363488   0.0000000), wk =   0.0277778
        k(   43) = (   0.3276499  -0.0944653   0.0000000), wk =   0.0277778
        k(   44) = (  -0.0818425   0.4253365   0.0000000), wk =   0.0277778
        k(   45) = (  -0.3276169   0.2835101   0.0000000), wk =   0.0277778
        k(   46) = (   0.4096076   0.1418549   0.0000000), wk =   0.0277778
        k(   47) = (  -0.3277157  -0.2836242   0.0000000), wk =   0.0277778
        k(   48) = (   0.4095582  -0.1417123   0.0000000), wk =   0.0277778
        k(   49) = (  -0.0818260   0.5198589   0.0000000), wk =   0.0277778
        k(   50) = (  -0.4095253   0.3307571   0.0000000), wk =   0.0277778
        k(   51) = (   0.4915324   0.1891303   0.0000000), wk =   0.0277778
        k(   52) = (  -0.4096405  -0.3308997   0.0000000), wk =   0.0277778
        k(   53) = (   0.4914666  -0.1889592   0.0000000), wk =   0.0277778
        k(   54) = (  -0.1637838   0.2835386   0.0000000), wk =   0.0277778
        k(   55) = (   0.3276663   0.0000570   0.0000000), wk =   0.0277778
        k(   56) = (  -0.1637673   0.3780610   0.0000000), wk =   0.0277778
        k(   57) = (  -0.2456921   0.3307856   0.0000000), wk =   0.0277778
        k(   58) = (   0.4095911   0.0473325   0.0000000), wk =   0.0277778
        k(   59) = (  -0.2458074  -0.3308711   0.0000000), wk =   0.0277778
        k(   60) = (   0.4095747  -0.0471899   0.0000000), wk =   0.0277778
        k(   61) = (  -0.1637508   0.4725834   0.0000000), wk =   0.0277778
        k(   62) = (  -0.3276005   0.3780325   0.0000000), wk =   0.0277778
        k(   63) = (   0.4915160   0.0946080   0.0000000), wk =   0.0277778
        k(   64) = (  -0.3277322  -0.3781466   0.0000000), wk =   0.0277778
        k(   65) = (   0.4914830  -0.0944368   0.0000000), wk =   0.0277778
        k(   66) = (  -0.4095088   0.4252795   0.0000000), wk =   0.0277778
        k(   67) = (   0.5734408   0.1418834   0.0000000), wk =   0.0277778
        k(   68) = (  -0.2456757   0.4253080   0.0000000), wk =   0.0277778
        k(   69) = (   0.4914995   0.0000856   0.0000000), wk =   0.0277778
        k(   70) = (  -0.2456592   0.5198304   0.0000000), wk =   0.0277778
        k(   71) = (  -0.3275840   0.4725549   0.0000000), wk =   0.0277778
        k(   72) = (   0.5734243   0.0473610   0.0000000), wk =   0.0277778
        k(   73) = (  -0.3277486  -0.4726690   0.0000000), wk =   0.0277778
        k(   74) = (   0.5734078  -0.0471614   0.0000000), wk =   0.0277778

     Initial potential from superposition of free atoms

     starting charge   59.99840, renormalised to   60.00000

     negative rho (up, down):  4.798E-05 0.000E+00
     Starting wfcs are   40 randomized atomic wfcs

     Self-consistent Calculation

[...]

     iteration #  6     ecut=    70.00 Ry     beta= 0.70
     Davidson diagonalization with overlap
     c_bands:  1 eigenvalues not converged
     c_bands:  1 eigenvalues not converged
     c_bands:  1 eigenvalues not converged
     c_bands:  1 eigenvalues not converged
     c_bands:  1 eigenvalues not converged
     ethr =  9.18E-06,  avg # of iterations = 12.2

[...]

     total energy              =   -1375.69711057 Ry
     estimated scf accuracy    <          3.3E-14 Ry

     iteration # 21     ecut=    70.00 Ry     beta= 0.70
     Davidson diagonalization with overlap
     ethr =  1.00E-13,  avg # of iterations =  1.0

[...]

     End of self-consistent calculation

[...]

          k =-0.3277-0.4727 0.0000 ( 15099 PWs)   bands (ev):

[...]

          k = 0.5734-0.0472 0.0000 ( 15095 PWs)   bands (ev):

   -67.5318 -67.5265 -34.4640 -34.3990 -34.2493 -34.1812 -34.0651 -34.0406
   -19.2484 -19.2385 -19.2365 -19.2345 -19.2293 -19.2247 -19.2227 -19.2092
   -19.2031 -19.2009 -19.1796 -19.1783 -19.1463 -19.1456 -10.8537  -5.9414
    -5.1462  -4.7306  -4.6209  -3.1521  -0.9483  -0.4672   2.5606   2.7765
     3.4979   4.1796   5.1630   6.3240

     the Fermi energy is     0.8299 ev

!    total energy              =   -1375.69711057 Ry
     estimated scf accuracy    <          7.4E-15 Ry
     smearing contrib. (-TS)   =      -0.00000378 Ry
     internal energy E=F+TS    =   -1375.69710679 Ry

     The total energy is F=E-TS. E is the sum of the following terms:
     one-electron contribution =  -11616.51536111 Ry
     hartree contribution      =    5838.39817889 Ry
     xc contribution           =    -140.31142963 Ry
     ewald contribution        =    4542.73150507 Ry

     convergence has been achieved in  21 iterations

     negative rho (up, down):  6.646E-05 0.000E+00

     Forces acting on atoms (cartesian axes, Ry/au):

     atom    1 type  2   force =    -0.00045460    0.00025786   -0.00000133
     atom    2 type  1   force =     0.00004005    0.00027677   -0.00027142
     atom    3 type  1   force =     0.00009773   -0.00035237    0.00027190
     atom    4 type  3   force =     0.00026844   -0.00055675   -0.00005519
     atom    5 type  3   force =     0.00004838    0.00037449    0.00005603

     Total force =     0.000944     Total SCF correction =     0.000001

     Computing stress (Cartesian axis) and pressure

     negative rho (up, down):  6.646E-05 0.000E+00
          total   stress  (Ry/bohr**3)                   (kbar)     P=       -0.36
  -0.00000322   0.00000012   0.00000076           -0.47        0.02        0.11
   0.00000012  -0.00000042  -0.00000381            0.02       -0.06       -0.56
   0.00000076  -0.00000381  -0.00000370            0.11       -0.56       -0.54

     Writing output data file /scratch/as3359/Ta2CH2-VCrelax/Ta.save/

     General routines

     Parallel routines

   This run was terminated on:  22:49:33  24Mar2022

   JOB DONE.