     Program PWSCF v.6.8 starts on  6Apr2022 at  9:48:14

     R & G space division:  proc/nbgrp/npool/nimage =       2

     Reading input from Ta2C.vcrelax.in

     Current dimensions of program PWSCF are:
     Max number of different atomic species (ntypx) = 10
     Max number of k-points (npk) =  40000
     Max angular momentum in pseudopotentials (lmaxx) =  4
     file Ta.pbesol-spfn-rrkjus_psl.1.0.0.UPF: wavefunction(s)  5S 5P renormalized

     Subspace diagonalization in iterative solution of the eigenvalue problem:
     a serial algorithm will be used

     Using Slab Decomposition

     bravais-lattice index     =            0
     lattice parameter (alat)  =       5.5500  a.u.
     unit-cell volume          =    1602.9280 (a.u.)^3
     number of atoms/cell      =            3
     number of atomic types    =            2
     number of electrons       =        58.00
     number of Kohn-Sham states=           35
     kinetic-energy cutoff     =      50.0000  Ry
     charge density cutoff     =     300.0000  Ry
     scf convergence threshold =      1.0E-12
     mixing beta               =       0.7000
     number of iterations used =            8  plain     mixing
     energy convergence thresh.=      1.0E-04
     force convergence thresh. =      1.0E-03
     press convergence thresh. =      5.0E-01
     Exchange-correlation= PBESOL
                           (   1   4  10   8   0   0   0)
     nstep                     =           50

     celldm(1)=   5.550000  celldm(2)=   0.000000  celldm(3)=   0.000000
     celldm(4)=   0.000000  celldm(5)=   0.000000  celldm(6)=   0.000000

     crystal axes: (cart. coord. in units of alat)
               a(1) = (   1.040524   0.000000   0.000000 )
               a(2) = (  -0.520262   0.901120   0.000000 )
               a(3) = (   0.000000   0.000000  10.000000 )

     reciprocal axes: (cart. coord. in units 2 pi/alat)
               b(1) = (  0.961054  0.554865  0.000000 )
               b(2) = (  0.000000  1.109730  0.000000 )
               b(3) = (  0.000000  0.000000  0.100000 )

     PseudoPot. # 1 for Ta read from file:
     /shared/home/as3359/pseudo/Ta.pbesol-spfn-rrkjus_psl.1.0.0.UPF
     MD5 check sum: f099565ffaca9b150a52e9412a28e20b
     Pseudo is Ultrasoft + core correction, Zval = 27.0
     Generated using &quot;atomic&quot; code by A. Dal Corso  v.6.3
     Using radial grid of 1273 points,  8 beta functions with:
                l(1) =   0
                l(2) =   0
                l(3) =   1
                l(4) =   1
                l(5) =   2
                l(6) =   2
                l(7) =   3
                l(8) =   3
     Q(r) pseudized with 0 coefficients

     PseudoPot. # 2 for C  read from file:
     /shared/home/as3359/pseudo/C.pbesol-n-rrkjus_psl.1.0.0.UPF
     MD5 check sum: 05995be603a8a7c99da3dc4413f31573
     Pseudo is Ultrasoft + core correction, Zval =  4.0
     Generated using &quot;atomic&quot; code by A. Dal Corso  v.6.3MaX
     Using radial grid of 1073 points,  4 beta functions with:
                l(1) =   0
                l(2) =   0
                l(3) =   1
                l(4) =   1
     Q(r) pseudized with 0 coefficients

     atomic species   valence    mass     pseudopotential
        Ta            27.00   180.94788     Ta( 1.00)
        C              4.00    12.01070     C ( 1.00)

     No symmetry found

   Cartesian axes

     site n.     atom                  positions (alat units)
         1           C   tau(   1) = (   0.0000000   0.0000000   0.0000000  )
         2           Ta  tau(   2) = (   0.3850724   0.2706727  -0.4102757  )
         3           Ta  tau(   3) = (  -0.3125459   0.5413454   0.4102757  )

     number of k points=    74  Marzari-Vanderbilt smearing, width (Ry)=  0.0010
                       cart. coord. in units 2pi/alat
        k(    1) = (   0.0000000   0.0000000   0.0000000), wk =   0.0138889
        k(    2) = (   0.0000000   0.0924775   0.0000000), wk =   0.0277778
        k(    3) = (   0.0000000   0.1849549   0.0000000), wk =   0.0277778
        k(    4) = (   0.0000000   0.2774324   0.0000000), wk =   0.0277778
        k(    5) = (   0.0000000   0.3699099   0.0000000), wk =   0.0277778
        k(    6) = (   0.0000000   0.4623873   0.0000000), wk =   0.0277778
        k(    7) = (   0.0000000  -0.5548648   0.0000000), wk =   0.0138889
        k(    8) = (   0.0800878   0.1387162   0.0000000), wk =   0.0277778
        k(    9) = (   0.0800878   0.2311937   0.0000000), wk =   0.0277778
        k(   10) = (   0.0800878   0.3236711   0.0000000), wk =   0.0277778
        k(   11) = (   0.0800878   0.4161486   0.0000000), wk =   0.0277778
        k(   12) = (   0.0800878   0.5086261   0.0000000), wk =   0.0277778
        k(   13) = (   0.1601757   0.2774324   0.0000000), wk =   0.0277778
        k(   14) = (   0.1601757   0.3699099   0.0000000), wk =   0.0277778
        k(   15) = (   0.1601757   0.4623873   0.0000000), wk =   0.0277778
        k(   16) = (   0.1601757   0.5548648   0.0000000), wk =   0.0277778
        k(   17) = (   0.2402635   0.4161486   0.0000000), wk =   0.0277778
        k(   18) = (   0.2402635   0.5086261   0.0000000), wk =   0.0277778
        k(   19) = (   0.3203513   0.5548648   0.0000000), wk =   0.0277778
        k(   20) = (  -0.0800878   0.0462387   0.0000000), wk =   0.0277778
        k(   21) = (   0.0800878   0.0462387   0.0000000), wk =   0.0277778
        k(   22) = (  -0.1601757   0.0924775   0.0000000), wk =   0.0277778
        k(   23) = (   0.1601757   0.0924775   0.0000000), wk =   0.0277778
        k(   24) = (  -0.2402635   0.1387162   0.0000000), wk =   0.0277778
        k(   25) = (   0.2402635   0.1387162   0.0000000), wk =   0.0277778
        k(   26) = (  -0.3203513   0.1849549   0.0000000), wk =   0.0277778
        k(   27) = (   0.3203513   0.1849549   0.0000000), wk =   0.0277778
        k(   28) = (  -0.4004392   0.2311937   0.0000000), wk =   0.0277778
        k(   29) = (   0.4004392   0.2311937   0.0000000), wk =   0.0277778
        k(   30) = (   0.4805270  -0.2774324   0.0000000), wk =   0.0138889
        k(   31) = (  -0.4805270  -0.2774324   0.0000000), wk =   0.0138889
        k(   32) = (  -0.0800878   0.1387162   0.0000000), wk =   0.0277778
        k(   33) = (   0.1601757  -0.0000000   0.0000000), wk =   0.0277778
        k(   34) = (  -0.0800878   0.2311937   0.0000000), wk =   0.0277778
        k(   35) = (  -0.1601757   0.1849549   0.0000000), wk =   0.0277778
        k(   36) = (   0.2402635   0.0462387   0.0000000), wk =   0.0277778
        k(   37) = (  -0.1601757  -0.1849549   0.0000000), wk =   0.0277778
        k(   38) = (   0.2402635  -0.0462387   0.0000000), wk =   0.0277778
        k(   39) = (  -0.0800878   0.3236711   0.0000000), wk =   0.0277778
        k(   40) = (  -0.2402635   0.2311937   0.0000000), wk =   0.0277778
        k(   41) = (   0.3203513   0.0924775   0.0000000), wk =   0.0277778
        k(   42) = (  -0.2402635  -0.2311937   0.0000000), wk =   0.0277778
        k(   43) = (   0.3203513  -0.0924775   0.0000000), wk =   0.0277778
        k(   44) = (  -0.0800878   0.4161486   0.0000000), wk =   0.0277778
        k(   45) = (  -0.3203513   0.2774324   0.0000000), wk =   0.0277778
        k(   46) = (   0.4004392   0.1387162   0.0000000), wk =   0.0277778
        k(   47) = (  -0.3203513  -0.2774324   0.0000000), wk =   0.0277778
        k(   48) = (   0.4004392  -0.1387162   0.0000000), wk =   0.0277778
        k(   49) = (  -0.0800878   0.5086261   0.0000000), wk =   0.0277778
        k(   50) = (  -0.4004392   0.3236711   0.0000000), wk =   0.0277778
        k(   51) = (   0.4805270   0.1849549   0.0000000), wk =   0.0277778
        k(   52) = (  -0.4004392  -0.3236711   0.0000000), wk =   0.0277778
        k(   53) = (   0.4805270  -0.1849549   0.0000000), wk =   0.0277778
        k(   54) = (  -0.1601757   0.2774324   0.0000000), wk =   0.0277778
        k(   55) = (   0.3203513  -0.0000000   0.0000000), wk =   0.0277778
        k(   56) = (  -0.1601757   0.3699099   0.0000000), wk =   0.0277778
        k(   57) = (  -0.2402635   0.3236711   0.0000000), wk =   0.0277778
        k(   58) = (   0.4004392   0.0462387   0.0000000), wk =   0.0277778
        k(   59) = (  -0.2402635  -0.3236711   0.0000000), wk =   0.0277778
        k(   60) = (   0.4004392  -0.0462387   0.0000000), wk =   0.0277778
        k(   61) = (  -0.1601757   0.4623873   0.0000000), wk =   0.0277778
        k(   62) = (  -0.3203513   0.3699099   0.0000000), wk =   0.0277778
        k(   63) = (   0.4805270   0.0924775   0.0000000), wk =   0.0277778
        k(   64) = (  -0.3203513  -0.3699099   0.0000000), wk =   0.0277778
        k(   65) = (   0.4805270  -0.0924775   0.0000000), wk =   0.0277778
        k(   66) = (  -0.4004392   0.4161486   0.0000000), wk =   0.0277778
        k(   67) = (   0.5606148   0.1387162   0.0000000), wk =   0.0277778
        k(   68) = (  -0.2402635   0.4161486   0.0000000), wk =   0.0277778
        k(   69) = (   0.4805270  -0.0000000   0.0000000), wk =   0.0277778
        k(   70) = (  -0.2402635   0.5086261   0.0000000), wk =   0.0277778
        k(   71) = (  -0.3203513   0.4623873   0.0000000), wk =   0.0277778
        k(   72) = (   0.5606148   0.0462387   0.0000000), wk =   0.0277778
        k(   73) = (  -0.3203513  -0.4623873   0.0000000), wk =   0.0277778
        k(   74) = (   0.5606148  -0.0462387   0.0000000), wk =   0.0277778

     Check: negative core charge=   -0.000001

     Initial potential from superposition of free atoms

     starting charge   57.99842, renormalised to   58.00000

     negative rho (up, down):  8.374E-04 0.000E+00
     Starting wfcs are   38 randomized atomic wfcs

     Self-consistent Calculation

     iteration #  1     ecut=    50.00 Ry     beta= 0.70
     Davidson diagonalization with overlap
     ethr =  1.00E-02,  avg # of iterations =  2.3

     negative rho (up, down):  7.973E-04 0.000E+00

     total energy              =   -1371.80174466 Ry
     estimated scf accuracy    <       1.89071228 Ry

[...]

     WARNING: integrated charge=    58.00088303, expected=    58.00000000

[...]

     End of self-consistent calculation

          k = 0.0000 0.0000 0.0000 (  9701 PWs)   bands (ev):

   -67.8244 -67.6497 -35.0200 -34.3483 -34.1024 -33.9759 -33.9252 -33.7441
   -19.6789 -19.6637 -19.6487 -19.6463 -19.6331 -19.6217 -19.5731 -19.4960
   -19.4771 -19.4594 -19.4517 -19.4306 -19.4262 -19.3829 -12.5025  -7.3829
    -4.3836  -3.6002  -2.1139  -1.1695  -0.8711  -0.2733   0.1973   0.7112
     1.6901   3.0361   3.4715

[...]

          k =-0.0801 0.0462 0.0000 (  9645 PWs)   bands (ev):

[...]

     the Fermi energy is     0.0118 ev

!    total energy              =   -1372.96392781 Ry
     estimated scf accuracy    <          4.0E-13 Ry
     smearing contrib. (-TS)   =      -0.00000143 Ry
     internal energy E=F+TS    =   -1372.96392638 Ry

     The total energy is F=E-TS. E is the sum of the following terms:
     one-electron contribution =  -10834.69786119 Ry
     hartree contribution      =    5446.58346870 Ry
     xc contribution           =    -138.97799470 Ry
     ewald contribution        =    4154.12846080 Ry

[...]
     c_bands:  1 eigenvalues not converged
     c_bands:  2 eigenvalues not converged
     c_bands:  2 eigenvalues not converged
     c_bands:  1 eigenvalues not converged
     c_bands:  1 eigenvalues not converged
     c_bands:  1 eigenvalues not converged
     c_bands:  1 eigenvalues not converged
     c_bands:  1 eigenvalues not converged
     c_bands:  2 eigenvalues not converged
     c_bands:  2 eigenvalues not converged
     c_bands:  2 eigenvalues not converged
     c_bands:  2 eigenvalues not converged
     c_bands:  1 eigenvalues not converged
     c_bands:  2 eigenvalues not converged
     c_bands:  2 eigenvalues not converged
     c_bands:  2 eigenvalues not converged
     c_bands:  2 eigenvalues not converged
     c_bands:  2 eigenvalues not converged
     c_bands:  1 eigenvalues not converged
     c_bands:  1 eigenvalues not converged
     c_bands:  1 eigenvalues not converged
     c_bands:  1 eigenvalues not converged
     c_bands:  1 eigenvalues not converged
     c_bands:  1 eigenvalues not converged
     c_bands:  1 eigenvalues not converged
     c_bands:  1 eigenvalues not converged
     c_bands:  1 eigenvalues not converged
     c_bands:  1 eigenvalues not converged
     c_bands:  1 eigenvalues not converged
     c_bands:  1 eigenvalues not converged
     c_bands:  1 eigenvalues not converged
     c_bands:  1 eigenvalues not converged
     c_bands:  1 eigenvalues not converged
     c_bands:  1 eigenvalues not converged
     c_bands:  1 eigenvalues not converged
     c_bands:  1 eigenvalues not converged
     c_bands:  1 eigenvalues not converged
     ethr =  1.00E-06,  avg # of iterations = 16.2
     Minimization algorithm failed to find Fermi energy: reverting to bisection
     Possible cause: smearing is larger than the electronic band-gap.

[...]

     number of scf cycles    =  24
     number of bfgs steps    =  23

     enthalpy           old  =   -1373.2325131156 Ry
     enthalpy           new  =   -1373.2325155967 Ry

     CASE: enthalpy          _new < enthalpy          _old

     new trust radius        =       0.0039495227 bohr
     new conv_thr            =            1.0E-14 Ry

     new unit-cell volume =   1588.78437 a.u.^3 (   235.43355 Ang^3 )
     density =      2.63720 g/cm^3

[...]

ATOMIC_POSITIONS (crystal)
C             0.0000000000        0.0000000000        0.0000000000    0   0   0
Ta            0.6671996597        0.3341664961       -0.0412712937
Ta            0.3331987106        0.6661081963        0.0412527245

     Writing output data file /scratch/as3359/Ta2C_looping/Ta.save/
     NEW-OLD atomic charge density approx. for the potential

[...]

     negative rho (up, down):  8.465E-04 0.000E+00
     extrapolated charge   58.00561, renormalised to   58.00000

[...]

     Energy error            =      2.9E-06 Ry
     Gradient error          =      6.2E-04 Ry/Bohr
     Cell gradient error     =      4.5E-01 kbar

     bfgs converged in  25 scf cycles and  24 bfgs steps
     (criteria: energy <  1.0E-04 Ry, force <  1.0E-03Ry/Bohr, cell <  5.0E-01kbar)

     End of BFGS Geometry Optimization

     Final enthalpy           =   -1373.2325184633 Ry

     File /scratch/as3359/Ta2C_looping/Ta.bfgs deleted, as requested
Begin final coordinates
     new unit-cell volume =   1588.78437 a.u.^3 (   235.43355 Ang^3 )
     density =      2.63720 g/cm^3

CELL_PARAMETERS (alat=  5.55000000)
   1.034114046   0.000203161   0.000000000
  -0.516206994   0.898604446   0.000000000
   0.000000000   0.000000000  10.000000000

ATOMIC_POSITIONS (crystal)
C             0.0000000000        0.0000000000        0.0000000000    0   0   0
Ta            0.6671996597        0.3341664961       -0.0412712937
Ta            0.3331987106        0.6661081963        0.0412527245
End final coordinates

     Writing output data file /scratch/as3359/Ta2C_looping/Ta.save/

     Final scf calculation at the relaxed structure.
     The G-vectors are recalculated for the final unit cell
     Results may differ from those at the preceding step.

     Using Slab Decomposition

     bravais-lattice index     =            0
     lattice parameter (alat)  =       5.5500  a.u.
     unit-cell volume          =    1588.7844 (a.u.)^3
     number of atoms/cell      =            3
     number of atomic types    =            2
     number of electrons       =        58.00
     number of Kohn-Sham states=           35
     kinetic-energy cutoff     =      50.0000  Ry
     charge density cutoff     =     300.0000  Ry
     scf convergence threshold =      1.0E-14
     mixing beta               =       0.7000
     number of iterations used =            8  plain     mixing
     press convergence thresh. =      5.0E-01
     Exchange-correlation= PBESOL
                           (   1   4  10   8   0   0   0)

     celldm(1)=   5.550000  celldm(2)=   0.000000  celldm(3)=   0.000000
     celldm(4)=   0.000000  celldm(5)=   0.000000  celldm(6)=   0.000000

     crystal axes: (cart. coord. in units of alat)
               a(1) = (   1.034114   0.000203   0.000000 )
               a(2) = (  -0.516207   0.898604   0.000000 )
               a(3) = (   0.000000   0.000000  10.000000 )

     reciprocal axes: (cart. coord. in units 2 pi/alat)
               b(1) = (  0.966902  0.555441  0.000000 )
               b(2) = ( -0.000219  1.112711  0.000000 )
               b(3) = (  0.000000  0.000000  0.100000 )

     PseudoPot. # 1 for Ta read from file:
     /shared/home/as3359/pseudo/Ta.pbesol-spfn-rrkjus_psl.1.0.0.UPF
     MD5 check sum: f099565ffaca9b150a52e9412a28e20b
     Pseudo is Ultrasoft + core correction, Zval = 27.0
     Generated using &quot;atomic&quot; code by A. Dal Corso  v.6.3
     Using radial grid of 1273 points,  8 beta functions with:
                l(1) =   0
                l(2) =   0
                l(3) =   1
                l(4) =   1
                l(5) =   2
                l(6) =   2
                l(7) =   3
                l(8) =   3
     Q(r) pseudized with 0 coefficients

     PseudoPot. # 2 for C  read from file:
     /shared/home/as3359/pseudo/C.pbesol-n-rrkjus_psl.1.0.0.UPF
     MD5 check sum: 05995be603a8a7c99da3dc4413f31573
     Pseudo is Ultrasoft + core correction, Zval =  4.0
     Generated using &quot;atomic&quot; code by A. Dal Corso  v.6.3MaX
     Using radial grid of 1073 points,  4 beta functions with:
                l(1) =   0
                l(2) =   0
                l(3) =   1
                l(4) =   1
     Q(r) pseudized with 0 coefficients

     atomic species   valence    mass     pseudopotential
        Ta            27.00   180.94788     Ta( 1.00)
        C              4.00    12.01070     C ( 1.00)

     No symmetry found

   Cartesian axes

     site n.     atom                  positions (alat units)
         1           C   tau(   1) = (   0.0000000   0.0000000   0.0000000  )
         2           Ta  tau(   2) = (   0.5174615   0.3004190  -0.4127129  )
         3           Ta  tau(   3) = (   0.0007158   0.5986355   0.4125272  )

     number of k points=    74  Marzari-Vanderbilt smearing, width (Ry)=  0.0010
                       cart. coord. in units 2pi/alat
        k(    1) = (   0.0000000   0.0000000   0.0000000), wk =   0.0138889
        k(    2) = (  -0.0000182   0.0927259   0.0000000), wk =   0.0277778
        k(    3) = (  -0.0000364   0.1854519   0.0000000), wk =   0.0277778
        k(    4) = (  -0.0000547   0.2781778   0.0000000), wk =   0.0277778
        k(    5) = (  -0.0000729   0.3709037   0.0000000), wk =   0.0277778
        k(    6) = (  -0.0000911   0.4636296   0.0000000), wk =   0.0277778
        k(    7) = (   0.0001093  -0.5563556   0.0000000), wk =   0.0138889
        k(    8) = (   0.0805570   0.1390127   0.0000000), wk =   0.0277778
        k(    9) = (   0.0805388   0.2317386   0.0000000), wk =   0.0277778
        k(   10) = (   0.0805205   0.3244645   0.0000000), wk =   0.0277778
        k(   11) = (   0.0805023   0.4171904   0.0000000), wk =   0.0277778
        k(   12) = (   0.0804841   0.5099164   0.0000000), wk =   0.0277778
        k(   13) = (   0.1611139   0.2780253   0.0000000), wk =   0.0277778
        k(   14) = (   0.1610957   0.3707513   0.0000000), wk =   0.0277778
        k(   15) = (   0.1610775   0.4634772   0.0000000), wk =   0.0277778
        k(   16) = (   0.1610593   0.5562031   0.0000000), wk =   0.0277778
        k(   17) = (   0.2416709   0.4170380   0.0000000), wk =   0.0277778
        k(   18) = (   0.2416527   0.5097639   0.0000000), wk =   0.0277778
        k(   19) = (   0.3222279   0.5560507   0.0000000), wk =   0.0277778
        k(   20) = (  -0.0805934   0.0464392   0.0000000), wk =   0.0277778
        k(   21) = (   0.0805752   0.0462867   0.0000000), wk =   0.0277778
        k(   22) = (  -0.1611868   0.0928784   0.0000000), wk =   0.0277778
        k(   23) = (   0.1611504   0.0925735   0.0000000), wk =   0.0277778
        k(   24) = (  -0.2417802   0.1393175   0.0000000), wk =   0.0277778
        k(   25) = (   0.2417256   0.1388602   0.0000000), wk =   0.0277778
        k(   26) = (  -0.3223736   0.1857567   0.0000000), wk =   0.0277778
        k(   27) = (   0.3223007   0.1851470   0.0000000), wk =   0.0277778
        k(   28) = (  -0.4029670   0.2321959   0.0000000), wk =   0.0277778
        k(   29) = (   0.4028759   0.2314337   0.0000000), wk =   0.0277778
        k(   30) = (   0.4835604  -0.2786351   0.0000000), wk =   0.0138889
        k(   31) = (  -0.4834511  -0.2777205   0.0000000), wk =   0.0138889
        k(   32) = (  -0.0806116   0.1391651   0.0000000), wk =   0.0277778
        k(   33) = (   0.1611686  -0.0001524   0.0000000), wk =   0.0277778
        k(   34) = (  -0.0806298   0.2318910   0.0000000), wk =   0.0277778
        k(   35) = (  -0.1612050   0.1856043   0.0000000), wk =   0.0277778
        k(   36) = (   0.2417438   0.0461343   0.0000000), wk =   0.0277778
        k(   37) = (  -0.1611322  -0.1852994   0.0000000), wk =   0.0277778
        k(   38) = (   0.2417620  -0.0465916   0.0000000), wk =   0.0277778
        k(   39) = (  -0.0806481   0.3246170   0.0000000), wk =   0.0277778
        k(   40) = (  -0.2417984   0.2320435   0.0000000), wk =   0.0277778
        k(   41) = (   0.3223190   0.0924210   0.0000000), wk =   0.0277778
        k(   42) = (  -0.2417073  -0.2315862   0.0000000), wk =   0.0277778
        k(   43) = (   0.3223554  -0.0930308   0.0000000), wk =   0.0277778
        k(   44) = (  -0.0806663   0.4173429   0.0000000), wk =   0.0277778
        k(   45) = (  -0.3223918   0.2784827   0.0000000), wk =   0.0277778
        k(   46) = (   0.4028941   0.1387078   0.0000000), wk =   0.0277778
        k(   47) = (  -0.3222825  -0.2778729   0.0000000), wk =   0.0277778
        k(   48) = (   0.4029488  -0.1394700   0.0000000), wk =   0.0277778
        k(   49) = (  -0.0806845   0.5100688   0.0000000), wk =   0.0277778
        k(   50) = (  -0.4029852   0.3249218   0.0000000), wk =   0.0277778
        k(   51) = (   0.4834693   0.1849945   0.0000000), wk =   0.0277778
        k(   52) = (  -0.4028577  -0.3241596   0.0000000), wk =   0.0277778
        k(   53) = (   0.4835422  -0.1859092   0.0000000), wk =   0.0277778
        k(   54) = (  -0.1612232   0.2783302   0.0000000), wk =   0.0277778
        k(   55) = (   0.3223372  -0.0003049   0.0000000), wk =   0.0277778
        k(   56) = (  -0.1612415   0.3710561   0.0000000), wk =   0.0277778
        k(   57) = (  -0.2418166   0.3247694   0.0000000), wk =   0.0277778
        k(   58) = (   0.4029124   0.0459819   0.0000000), wk =   0.0277778
        k(   59) = (  -0.2416891  -0.3243121   0.0000000), wk =   0.0277778
        k(   60) = (   0.4029306  -0.0467441   0.0000000), wk =   0.0277778
        k(   61) = (  -0.1612597   0.4637821   0.0000000), wk =   0.0277778
        k(   62) = (  -0.3224100   0.3712086   0.0000000), wk =   0.0277778
        k(   63) = (   0.4834875   0.0922686   0.0000000), wk =   0.0277778
        k(   64) = (  -0.3222643  -0.3705988   0.0000000), wk =   0.0277778
        k(   65) = (   0.4835240  -0.0931832   0.0000000), wk =   0.0277778
        k(   66) = (  -0.4030034   0.4176478   0.0000000), wk =   0.0277778
        k(   67) = (   0.5640627   0.1385554   0.0000000), wk =   0.0277778
        k(   68) = (  -0.2418349   0.4174953   0.0000000), wk =   0.0277778
        k(   69) = (   0.4835058  -0.0004573   0.0000000), wk =   0.0277778
        k(   70) = (  -0.2418531   0.5102213   0.0000000), wk =   0.0277778
        k(   71) = (  -0.3224283   0.4639345   0.0000000), wk =   0.0277778
        k(   72) = (   0.5640809   0.0458294   0.0000000), wk =   0.0277778
        k(   73) = (  -0.3222461  -0.4633248   0.0000000), wk =   0.0277778
        k(   74) = (   0.5640992  -0.0468965   0.0000000), wk =   0.0277778

     Check: negative core charge=   -0.000001

     Initial potential from superposition of free atoms

     starting charge   57.99842, renormalised to   58.00000

     negative rho (up, down):  8.408E-04 0.000E+00
     Starting wfcs are   38 randomized atomic wfcs

     Self-consistent Calculation

     iteration #  1     ecut=    50.00 Ry     beta= 0.70
     Davidson diagonalization with overlap
     c_bands:  1 eigenvalues not converged
     c_bands:  1 eigenvalues not converged
     c_bands:  1 eigenvalues not converged
     c_bands:  1 eigenvalues not converged
     c_bands:  1 eigenvalues not converged
     c_bands:  1 eigenvalues not converged
     c_bands:  1 eigenvalues not converged
     c_bands:  1 eigenvalues not converged
     c_bands:  1 eigenvalues not converged
     c_bands:  1 eigenvalues not converged
     c_bands:  1 eigenvalues not converged
     c_bands:  1 eigenvalues not converged
     c_bands:  1 eigenvalues not converged
     c_bands:  1 eigenvalues not converged
     c_bands:  1 eigenvalues not converged
     c_bands:  1 eigenvalues not converged
     c_bands:  1 eigenvalues not converged
     c_bands:  1 eigenvalues not converged
     c_bands:  1 eigenvalues not converged
     c_bands:  1 eigenvalues not converged
     ethr =  1.00E-06,  avg # of iterations = 15.9

[...]

     iteration #  2     ecut=    50.00 Ry     beta= 0.70
     Davidson diagonalization with overlap
     ethr =  2.43E-03,  avg # of iterations = 12.0
     Minimization algorithm failed to find Fermi energy: reverting to bisection
     Possible cause: smearing is larger than the electronic band-gap.

[...]

     total energy              =   -1373.23202626 Ry
     estimated scf accuracy    <          2.6E-13 Ry

     iteration # 24     ecut=    50.00 Ry     beta= 0.70
     Davidson diagonalization with overlap
     ethr =  1.00E-13,  avg # of iterations =  1.0

[...]

     End of self-consistent calculation

[...]

          k =-0.3222-0.4633 0.0000 (  9461 PWs)   bands (ev):

[...]

          k = 0.5641-0.0469 0.0000 (  9451 PWs)   bands (ev):

   -68.2591 -68.2512 -35.1509 -35.0946 -34.9533 -34.8204 -34.7106 -34.6773
   -20.1853 -20.1801 -20.1770 -20.1735 -20.1696 -20.1607 -20.1507 -20.1307
   -20.1276 -20.1229 -20.0957 -20.0949 -20.0708 -20.0698 -11.7015  -6.4770
    -5.7244  -4.6181  -1.8332  -0.9609  -0.7171   0.4009   2.3858   2.4552
     3.5460   3.7495   6.0932

     the Fermi energy is    -0.2214 ev

!    total energy              =   -1373.23202626 Ry
     estimated scf accuracy    <          2.9E-15 Ry
     smearing contrib. (-TS)   =       0.00001300 Ry
     internal energy E=F+TS    =   -1373.23203927 Ry

     The total energy is F=E-TS. E is the sum of the following terms:
     one-electron contribution =  -10891.24694968 Ry
     hartree contribution      =    5473.60359463 Ry
     xc contribution           =    -138.72740570 Ry
     ewald contribution        =    4183.13872148 Ry

     convergence has been achieved in  24 iterations

     negative rho (up, down):  8.202E-04 0.000E+00

     Forces acting on atoms (cartesian axes, Ry/au):

     atom    1 type  2   force =     0.00031362    0.00028506   -0.00016925
     atom    2 type  1   force =    -0.00034962    0.00001841    0.00057576
     atom    3 type  1   force =     0.00003601   -0.00030347   -0.00040651

     Total force =     0.000844     Total SCF correction =     0.000000

     Computing stress (Cartesian axis) and pressure

     negative rho (up, down):  8.202E-04 0.000E+00
          total   stress  (Ry/bohr**3)                   (kbar)     P=       -1.96
  -0.00000187   0.00000090   0.00000055           -0.28        0.13        0.08
   0.00000090  -0.00000117  -0.00000046            0.13       -0.17       -0.07
   0.00000055  -0.00000046  -0.00003687            0.08       -0.07       -5.42

     Writing output data file /scratch/as3359/Ta2C_looping/Ta.save/

     General routines

     Parallel routines

   This run was terminated on:  11:47:35   6Apr2022

   JOB DONE.