     Program PWSCF v.6.8 starts on 26Mar2022 at 20:54:27

     R & G space division:  proc/nbgrp/npool/nimage =       2

     Reading input from Ta3C2.vcrelax.in

     Current dimensions of program PWSCF are:
     Max number of different atomic species (ntypx) = 10
     Max number of k-points (npk) =  40000
     Max angular momentum in pseudopotentials (lmaxx) =  4
     file Ta.pbesol-spfn-rrkjus_psl.1.0.0.UPF: wavefunction(s)  5S 5P renormalized

     Subspace diagonalization in iterative solution of the eigenvalue problem:
     a serial algorithm will be used

     Using Slab Decomposition

     bravais-lattice index     =            0
     lattice parameter (alat)  =       5.5500  a.u.
     unit-cell volume          =    1637.9727 (a.u.)^3
     number of atoms/cell      =            5
     number of atomic types    =            3
     number of electrons       =        89.00
     number of Kohn-Sham states=           54
     kinetic-energy cutoff     =      70.0000  Ry
     charge density cutoff     =     700.0000  Ry
     scf convergence threshold =      1.0E-12
     mixing beta               =       0.7000
     number of iterations used =            8  plain     mixing
     energy convergence thresh.=      1.0E-04
     force convergence thresh. =      1.0E-03
     press convergence thresh. =      5.0E-01
     Exchange-correlation= PBESOL
                           (   1   4  10   8   0   0   0)
     nstep                     =           50

     celldm(1)=   5.550000  celldm(2)=   0.000000  celldm(3)=   0.000000
     celldm(4)=   0.000000  celldm(5)=   0.000000  celldm(6)=   0.000000

     crystal axes: (cart. coord. in units of alat)
               a(1) = (   1.051851   0.000006   0.000000 )
               a(2) = (  -0.525920   0.910903   0.000000 )
               a(3) = (   0.000000   0.000000  10.000000 )

     reciprocal axes: (cart. coord. in units 2 pi/alat)
               b(1) = (  0.950702  0.548899  0.000000 )
               b(2) = ( -0.000006  1.097808  0.000000 )
               b(3) = (  0.000000  0.000000  0.100000 )

     PseudoPot. # 1 for Ta read from file:
     /shared/home/as3359/pseudo/Ta.pbesol-spfn-rrkjus_psl.1.0.0.UPF
     MD5 check sum: f099565ffaca9b150a52e9412a28e20b
     Pseudo is Ultrasoft + core correction, Zval = 27.0
     Generated using &quot;atomic&quot; code by A. Dal Corso  v.6.3
     Using radial grid of 1273 points,  8 beta functions with:
                l(1) =   0
                l(2) =   0
                l(3) =   1
                l(4) =   1
                l(5) =   2
                l(6) =   2
                l(7) =   3
                l(8) =   3
     Q(r) pseudized with 0 coefficients

     PseudoPot. # 2 for C  read from file:
     /shared/home/as3359/pseudo/C.pbesol-n-rrkjus_psl.1.0.0.UPF
     MD5 check sum: 05995be603a8a7c99da3dc4413f31573
     Pseudo is Ultrasoft + core correction, Zval =  4.0
     Generated using &quot;atomic&quot; code by A. Dal Corso  v.6.3MaX
     Using radial grid of 1073 points,  4 beta functions with:
                l(1) =   0
                l(2) =   0
                l(3) =   1
                l(4) =   1
     Q(r) pseudized with 0 coefficients

     PseudoPot. # 3 for O  read from file:
     /shared/home/as3359/pseudo/O.pbesol-n-rrkjus_psl.1.0.0.UPF
     MD5 check sum: dd9bad2534826f832ffc9296591fc5de
     Pseudo is Ultrasoft + core correction, Zval =  6.0
     Generated using &quot;atomic&quot; code by A. Dal Corso  v.6.3MaX
     Using radial grid of 1095 points,  4 beta functions with:
                l(1) =   0
                l(2) =   0
                l(3) =   1
                l(4) =   1
     Q(r) pseudized with 0 coefficients

     atomic species   valence    mass     pseudopotential
        Ta            27.00   180.94788     Ta( 1.00)
        C              4.00    12.01070     C ( 1.00)
        O              6.00    15.99940     O ( 1.00)

     No symmetry found

   Cartesian axes

     site n.     atom                  positions (alat units)
         1           Ta  tau(   1) = (   0.0000231   0.6073201   0.6349311  )
         2           C   tau(   2) = (   0.0000093   0.0000234   1.0244802  )
         3           Ta  tau(   3) = (   0.5259269   0.3036382   1.4781889  )
         4           C   tau(   4) = (  -0.0000061   0.6072475   1.9318977  )
         5           Ta  tau(   5) = (  -0.0000199  -0.0000492   2.3214464  )

     number of k points=   202  Marzari-Vanderbilt smearing, width (Ry)=  0.0010

     Number of k-points >= 100: set verbosity='high' to print them.

     Initial potential from superposition of free atoms

     starting charge   88.99760, renormalised to   89.00000

     negative rho (up, down):  5.843E-05 0.000E+00
     Starting wfcs are   59 randomized atomic wfcs

     Self-consistent Calculation

     iteration #  1     ecut=    70.00 Ry     beta= 0.70
     Davidson diagonalization with overlap
     ethr =  1.00E-02,  avg # of iterations =  2.1

     negative rho (up, down):  4.709E-06 0.000E+00

     total energy              =   -2064.53609226 Ry
     estimated scf accuracy    <       2.50918302 Ry

[...]

     iteration #  8     ecut=    70.00 Ry     beta= 0.70
     Davidson diagonalization with overlap
     c_bands:  1 eigenvalues not converged
     ethr =  6.55E-05,  avg # of iterations =  4.9

[...]

     End of self-consistent calculation

     Number of k-points >= 100: set verbosity='high' to print the bands.

     the Fermi energy is     2.0768 ev

!    total energy              =   -2066.19524072 Ry
     estimated scf accuracy    <          5.6E-13 Ry
     smearing contrib. (-TS)   =       0.00000383 Ry
     internal energy E=F+TS    =   -2066.19524455 Ry

     The total energy is F=E-TS. E is the sum of the following terms:
     one-electron contribution =  -19561.82472124 Ry
     hartree contribution      =    9830.94963547 Ry
     xc contribution           =    -210.59968138 Ry
     ewald contribution        =    7875.27952260 Ry

     convergence has been achieved in  25 iterations

[...]

     Forces acting on atoms (cartesian axes, Ry/au):

     atom    1 type  1   force =    -0.00000561   -0.00001386    0.00614057
     atom    2 type  2   force =    -0.00000080   -0.00000263   -0.00249865
     atom    3 type  1   force =    -0.00000004    0.00000009    0.00000272
     atom    4 type  2   force =     0.00000084    0.00000255    0.00250056
     atom    5 type  1   force =     0.00000561    0.00001385   -0.00614520

     Total force =     0.009379     Total SCF correction =     0.000012

     Computing stress (Cartesian axis) and pressure

     negative rho (up, down):  6.786E-05 0.000E+00
          total   stress  (Ry/bohr**3)                   (kbar)     P=        0.71
   0.00002396  -0.00000000   0.00000003            3.52       -0.00        0.01
  -0.00000000   0.00002397   0.00000009           -0.00        3.53        0.01
   0.00000003   0.00000009  -0.00003340            0.01        0.01       -4.91

     BFGS Geometry Optimization
     Energy error            =      0.0E+00 Ry
     Gradient error          =      6.1E-03 Ry/Bohr
     Cell gradient error     =      3.5E+00 kbar

     number of scf cycles    =   1
     number of bfgs steps    =   0

     enthalpy           new  =   -2066.1952407173 Ry

     new trust radius        =       0.0061452144 bohr
     new conv_thr            =            1.0E-12 Ry

     new unit-cell volume =   1639.93596 a.u.^3 (   243.01344 Ang^3 )
     density =      3.87345 g/cm^3

CELL_PARAMETERS (alat=  5.55000000)
   1.052480491   0.000005473   0.000000000
  -0.526235506   0.911449440   0.000000000
   0.000000000   0.000000000  10.000000000

ATOMIC_POSITIONS (alat)
Ta            0.0000220278        0.6076815915        0.6360375089
C             0.0000091615        0.0000229399        1.0240299933
Ta            0.5262418209        0.3038201327        1.4781893896
C            -0.0000060272        0.6076119055        1.9323482508
Ta           -0.0000189013       -0.0000467331        2.3203391574

     Writing output data file /scratch/as3359/Ta3C2_loop/Ta.save/
     NEW-OLD atomic charge density approx. for the potential

     negative rho (up, down):  7.068E-05 0.000E+00
     extrapolated charge   89.10654, renormalised to   89.00000

[...]

     Energy error            =      1.2E-04 Ry
     Gradient error          =      4.4E-03 Ry/Bohr
     Cell gradient error     =      3.2E+00 kbar

[...]

     enthalpy           old  =   -2066.1952407173 Ry
     enthalpy           new  =   -2066.1953602363 Ry

     CASE: enthalpy          _new < enthalpy          _old

[...]

     WARNING: integrated charge=    89.00039234, expected=    89.00000000

[...]

     WARNING: integrated charge=    88.99999030, expected=    89.00000000

[...]

     number of scf cycles    =   7
     number of bfgs steps    =   6

     enthalpy           old  =   -2066.1957130917 Ry
     enthalpy           new  =   -2066.1957288699 Ry

     CASE: enthalpy          _new < enthalpy          _old

     new trust radius        =       0.0069950146 bohr
     new conv_thr            =            1.0E-14 Ry

     new unit-cell volume =   1660.91818 a.u.^3 (   246.12268 Ang^3 )
     density =      3.82452 g/cm^3

[...]

ATOMIC_POSITIONS (alat)
Ta            0.0000016251        0.6115191388        0.6463304060
C             0.0000010563        0.0000025357        1.0244314721
Ta            0.5295905957        0.3057584342        1.4781888257
C            -0.0000006990        0.6115136550        1.9319460981
Ta           -0.0000012620       -0.0000029715        2.3100474980

     Writing output data file /scratch/as3359/Ta3C2_loop/Ta.save/
     NEW-OLD atomic charge density approx. for the potential

     negative rho (up, down):  8.066E-05 0.000E+00
     extrapolated charge   88.85608, renormalised to   89.00000

[...]

     Energy error            =      3.9E-06 Ry
     Gradient error          =      6.7E-04 Ry/Bohr
     Cell gradient error     =      1.3E-01 kbar

     bfgs converged in   8 scf cycles and   7 bfgs steps
     (criteria: energy <  1.0E-04 Ry, force <  1.0E-03Ry/Bohr, cell <  5.0E-01kbar)

     End of BFGS Geometry Optimization

     Final enthalpy           =   -2066.1957328159 Ry

     File /scratch/as3359/Ta3C2_loop/Ta.bfgs deleted, as requested
Begin final coordinates
     new unit-cell volume =   1660.91818 a.u.^3 (   246.12268 Ang^3 )
     density =      3.82452 g/cm^3

CELL_PARAMETERS (alat=  5.55000000)
   1.059180841   0.000000664   0.000000000
  -0.529589845   0.917273859   0.000000000
   0.000000000   0.000000000  10.000000000

ATOMIC_POSITIONS (alat)
Ta            0.0000016251        0.6115191388        0.6463304060
C             0.0000010563        0.0000025357        1.0244314721
Ta            0.5295905957        0.3057584342        1.4781888257
C            -0.0000006990        0.6115136550        1.9319460981
Ta           -0.0000012620       -0.0000029715        2.3100474980
End final coordinates

     Writing output data file /scratch/as3359/Ta3C2_loop/Ta.save/

     Final scf calculation at the relaxed structure.
     The G-vectors are recalculated for the final unit cell
     Results may differ from those at the preceding step.

     Using Slab Decomposition

     bravais-lattice index     =            0
     lattice parameter (alat)  =       5.5500  a.u.
     unit-cell volume          =    1660.9182 (a.u.)^3
     number of atoms/cell      =            5
     number of atomic types    =            3
     number of electrons       =        89.00
     number of Kohn-Sham states=           54
     kinetic-energy cutoff     =      70.0000  Ry
     charge density cutoff     =     700.0000  Ry
     scf convergence threshold =      1.0E-14
     mixing beta               =       0.7000
     number of iterations used =            8  plain     mixing
     press convergence thresh. =      5.0E-01
     Exchange-correlation= PBESOL
                           (   1   4  10   8   0   0   0)

     celldm(1)=   5.550000  celldm(2)=   0.000000  celldm(3)=   0.000000
     celldm(4)=   0.000000  celldm(5)=   0.000000  celldm(6)=   0.000000

     crystal axes: (cart. coord. in units of alat)
               a(1) = (   1.059181   0.000001   0.000000 )
               a(2) = (  -0.529590   0.917274   0.000000 )
               a(3) = (   0.000000   0.000000  10.000000 )

     reciprocal axes: (cart. coord. in units 2 pi/alat)
               b(1) = (  0.944125  0.545093  0.000000 )
               b(2) = ( -0.000001  1.090187  0.000000 )
               b(3) = (  0.000000  0.000000  0.100000 )

     PseudoPot. # 1 for Ta read from file:
     /shared/home/as3359/pseudo/Ta.pbesol-spfn-rrkjus_psl.1.0.0.UPF
     MD5 check sum: f099565ffaca9b150a52e9412a28e20b
     Pseudo is Ultrasoft + core correction, Zval = 27.0
     Generated using &quot;atomic&quot; code by A. Dal Corso  v.6.3
     Using radial grid of 1273 points,  8 beta functions with:
                l(1) =   0
                l(2) =   0
                l(3) =   1
                l(4) =   1
                l(5) =   2
                l(6) =   2
                l(7) =   3
                l(8) =   3
     Q(r) pseudized with 0 coefficients

     PseudoPot. # 2 for C  read from file:
     /shared/home/as3359/pseudo/C.pbesol-n-rrkjus_psl.1.0.0.UPF
     MD5 check sum: 05995be603a8a7c99da3dc4413f31573
     Pseudo is Ultrasoft + core correction, Zval =  4.0
     Generated using &quot;atomic&quot; code by A. Dal Corso  v.6.3MaX
     Using radial grid of 1073 points,  4 beta functions with:
                l(1) =   0
                l(2) =   0
                l(3) =   1
                l(4) =   1
     Q(r) pseudized with 0 coefficients

     PseudoPot. # 3 for O  read from file:
     /shared/home/as3359/pseudo/O.pbesol-n-rrkjus_psl.1.0.0.UPF
     MD5 check sum: dd9bad2534826f832ffc9296591fc5de
     Pseudo is Ultrasoft + core correction, Zval =  6.0
     Generated using &quot;atomic&quot; code by A. Dal Corso  v.6.3MaX
     Using radial grid of 1095 points,  4 beta functions with:
                l(1) =   0
                l(2) =   0
                l(3) =   1
                l(4) =   1
     Q(r) pseudized with 0 coefficients

     atomic species   valence    mass     pseudopotential
        Ta            27.00   180.94788     Ta( 1.00)
        C              4.00    12.01070     C ( 1.00)
        O              6.00    15.99940     O ( 1.00)

     No symmetry found

   Cartesian axes

     site n.     atom                  positions (alat units)
         1           Ta  tau(   1) = (   0.0000016   0.6115191   0.6463304  )
         2           C   tau(   2) = (   0.0000011   0.0000025   1.0244315  )
         3           Ta  tau(   3) = (   0.5295906   0.3057584   1.4781888  )
         4           C   tau(   4) = (  -0.0000007   0.6115137   1.9319461  )
         5           Ta  tau(   5) = (  -0.0000013  -0.0000030   2.3100475  )

     number of k points=   202  Marzari-Vanderbilt smearing, width (Ry)=  0.0010

     Number of k-points >= 100: set verbosity='high' to print them.

     Initial potential from superposition of free atoms

     starting charge   88.99760, renormalised to   89.00000

     negative rho (up, down):  6.053E-05 0.000E+00
     Starting wfcs are   59 randomized atomic wfcs

     Self-consistent Calculation

[...]

     iteration # 13     ecut=    70.00 Ry     beta= 0.70
     Davidson diagonalization with overlap
     c_bands:  1 eigenvalues not converged
     c_bands:  1 eigenvalues not converged
     ethr =  4.40E-07,  avg # of iterations =  7.9

[...]

     total energy              =   -2066.19587959 Ry
     estimated scf accuracy    <          5.7E-14 Ry

     iteration # 30     ecut=    70.00 Ry     beta= 0.70
     Davidson diagonalization with overlap
     ethr =  1.00E-13,  avg # of iterations =  1.0

[...]

     End of self-consistent calculation

     Number of k-points >= 100: set verbosity='high' to print the bands.

     the Fermi energy is     2.0035 ev

!    total energy              =   -2066.19587959 Ry
     estimated scf accuracy    <          8.4E-15 Ry
     smearing contrib. (-TS)   =       0.00000222 Ry
     internal energy E=F+TS    =   -2066.19588182 Ry

     The total energy is F=E-TS. E is the sum of the following terms:
     one-electron contribution =  -19452.11019647 Ry
     hartree contribution      =    9775.61974338 Ry
     xc contribution           =    -210.58358398 Ry
     ewald contribution        =    7820.87815525 Ry

     convergence has been achieved in  30 iterations

     negative rho (up, down):  7.134E-05 0.000E+00

     Forces acting on atoms (cartesian axes, Ry/au):

     atom    1 type  1   force =    -0.00000009   -0.00000014    0.00068227
     atom    2 type  2   force =    -0.00000104   -0.00000244   -0.00037445
     atom    3 type  1   force =     0.00000001   -0.00000002    0.00000044
     atom    4 type  2   force =     0.00000104    0.00000243    0.00037467
     atom    5 type  1   force =     0.00000008    0.00000017   -0.00068293

     Total force =     0.001101     Total SCF correction =     0.000001

     Computing stress (Cartesian axis) and pressure

     negative rho (up, down):  7.134E-05 0.000E+00
          total   stress  (Ry/bohr**3)                   (kbar)     P=       -0.41
   0.00000009  -0.00000000   0.00000000            0.01       -0.00        0.00
  -0.00000000   0.00000011   0.00000001           -0.00        0.02        0.00
   0.00000000   0.00000001  -0.00000854            0.00        0.00       -1.26

     Writing output data file /scratch/as3359/Ta3C2_loop/Ta.save/

     General routines

     Parallel routines

   This run was terminated on:   5:16:33  27Mar2022

   JOB DONE.