     Program PWSCF v.6.8 starts on 27Mar2022 at  5:16:34

     R & G space division:  proc/nbgrp/npool/nimage =       2

     Reading input from Ta3C2.relax.in
Warning: card  &CELL ignored
Warning: card     CELL_DYNAMICS='BFGS', CELL_DOFREE ='2DXY' ignored
Warning: card  / ignored

     Current dimensions of program PWSCF are:
     Max number of different atomic species (ntypx) = 10
     Max number of k-points (npk) =  40000
     Max angular momentum in pseudopotentials (lmaxx) =  4
     file Ta.pbesol-spfn-rrkjus_psl.1.0.0.UPF: wavefunction(s)  5S 5P renormalized

     Subspace diagonalization in iterative solution of the eigenvalue problem:
     a serial algorithm will be used

     Using Slab Decomposition

     bravais-lattice index     =            0
     lattice parameter (alat)  =       5.5500  a.u.
     unit-cell volume          =    1660.9182 (a.u.)^3
     number of atoms/cell      =            5
     number of atomic types    =            3
     number of electrons       =        89.00
     number of Kohn-Sham states=           54
     kinetic-energy cutoff     =      70.0000  Ry
     charge density cutoff     =     700.0000  Ry
     scf convergence threshold =      1.0E-12
     mixing beta               =       0.7000
     number of iterations used =            8  plain     mixing
     energy convergence thresh.=      1.0E-04
     force convergence thresh. =      1.0E-03
     Exchange-correlation= PBESOL
                           (   1   4  10   8   0   0   0)
     nstep                     =           50

     celldm(1)=   5.550000  celldm(2)=   0.000000  celldm(3)=   0.000000
     celldm(4)=   0.000000  celldm(5)=   0.000000  celldm(6)=   0.000000

     crystal axes: (cart. coord. in units of alat)
               a(1) = (   1.059181   0.000001   0.000000 )
               a(2) = (  -0.529590   0.917274   0.000000 )
               a(3) = (   0.000000   0.000000  10.000000 )

     reciprocal axes: (cart. coord. in units 2 pi/alat)
               b(1) = (  0.944125  0.545093  0.000000 )
               b(2) = ( -0.000001  1.090187  0.000000 )
               b(3) = (  0.000000  0.000000  0.100000 )

     PseudoPot. # 1 for Ta read from file:
     /shared/home/as3359/pseudo/Ta.pbesol-spfn-rrkjus_psl.1.0.0.UPF
     MD5 check sum: f099565ffaca9b150a52e9412a28e20b
     Pseudo is Ultrasoft + core correction, Zval = 27.0
     Generated using &quot;atomic&quot; code by A. Dal Corso  v.6.3
     Using radial grid of 1273 points,  8 beta functions with:
                l(1) =   0
                l(2) =   0
                l(3) =   1
                l(4) =   1
                l(5) =   2
                l(6) =   2
                l(7) =   3
                l(8) =   3
     Q(r) pseudized with 0 coefficients

     PseudoPot. # 2 for C  read from file:
     /shared/home/as3359/pseudo/C.pbesol-n-rrkjus_psl.1.0.0.UPF
     MD5 check sum: 05995be603a8a7c99da3dc4413f31573
     Pseudo is Ultrasoft + core correction, Zval =  4.0
     Generated using &quot;atomic&quot; code by A. Dal Corso  v.6.3MaX
     Using radial grid of 1073 points,  4 beta functions with:
                l(1) =   0
                l(2) =   0
                l(3) =   1
                l(4) =   1
     Q(r) pseudized with 0 coefficients

     PseudoPot. # 3 for O  read from file:
     /shared/home/as3359/pseudo/O.pbesol-n-rrkjus_psl.1.0.0.UPF
     MD5 check sum: dd9bad2534826f832ffc9296591fc5de
     Pseudo is Ultrasoft + core correction, Zval =  6.0
     Generated using &quot;atomic&quot; code by A. Dal Corso  v.6.3MaX
     Using radial grid of 1095 points,  4 beta functions with:
                l(1) =   0
                l(2) =   0
                l(3) =   1
                l(4) =   1
     Q(r) pseudized with 0 coefficients

     atomic species   valence    mass     pseudopotential
        Ta            27.00   180.94788     Ta( 1.00)
        C              4.00    12.01070     C ( 1.00)
        O              6.00    15.99940     O ( 1.00)

     No symmetry found

   Cartesian axes

     site n.     atom                  positions (alat units)
         1           Ta  tau(   1) = (   0.0000016   0.6115191   0.6463304  )
         2           C   tau(   2) = (   0.0000011   0.0000025   1.0244315  )
         3           Ta  tau(   3) = (   0.5295906   0.3057584   1.4781888  )
         4           C   tau(   4) = (  -0.0000007   0.6115137   1.9319461  )
         5           Ta  tau(   5) = (  -0.0000013  -0.0000030   2.3100475  )

     number of k points=   202  Marzari-Vanderbilt smearing, width (Ry)=  0.0010

     Number of k-points >= 100: set verbosity='high' to print them.

     Initial potential from superposition of free atoms

     starting charge   88.99760, renormalised to   89.00000

     negative rho (up, down):  6.053E-05 0.000E+00
     Starting wfcs are   59 randomized atomic wfcs

     Self-consistent Calculation

     iteration #  1     ecut=    70.00 Ry     beta= 0.70
     Davidson diagonalization with overlap
     ethr =  1.00E-02,  avg # of iterations =  2.2

     negative rho (up, down):  5.529E-06 0.000E+00

     total energy              =   -2064.56012966 Ry
     estimated scf accuracy    <       2.47644926 Ry

[...]

     iteration # 12     ecut=    70.00 Ry     beta= 0.70
     Davidson diagonalization with overlap
     c_bands:  1 eigenvalues not converged
     ethr =  3.07E-05,  avg # of iterations =  5.0

[...]

     iteration # 14     ecut=    70.00 Ry     beta= 0.70
     Davidson diagonalization with overlap
     c_bands:  1 eigenvalues not converged
     ethr =  2.08E-07,  avg # of iterations =  2.6

[...]

     total energy              =   -2066.19587959 Ry
     estimated scf accuracy    <          8.2E-12 Ry

     iteration # 28     ecut=    70.00 Ry     beta= 0.70
     Davidson diagonalization with overlap
     ethr =  1.00E-13,  avg # of iterations =  1.0

[...]

     End of self-consistent calculation

     Number of k-points >= 100: set verbosity='high' to print the bands.

     the Fermi energy is     2.0035 ev

!    total energy              =   -2066.19587959 Ry
     estimated scf accuracy    <          8.6E-14 Ry
     smearing contrib. (-TS)   =       0.00000222 Ry
     internal energy E=F+TS    =   -2066.19588181 Ry

     The total energy is F=E-TS. E is the sum of the following terms:
     one-electron contribution =  -19452.11015117 Ry
     hartree contribution      =    9775.61971336 Ry
     xc contribution           =    -210.58358361 Ry
     ewald contribution        =    7820.87813960 Ry

     convergence has been achieved in  28 iterations

     negative rho (up, down):  7.134E-05 0.000E+00

     Forces acting on atoms (cartesian axes, Ry/au):

     atom    1 type  1   force =    -0.00000001   -0.00000013    0.00068256
     atom    2 type  2   force =    -0.00000116   -0.00000243   -0.00037471
     atom    3 type  1   force =     0.00000003    0.00000005    0.00000132
     atom    4 type  2   force =     0.00000101    0.00000226    0.00037445
     atom    5 type  1   force =     0.00000013    0.00000025   -0.00068361

     Total force =     0.001102     Total SCF correction =     0.000003

     Computing stress (Cartesian axis) and pressure

     negative rho (up, down):  7.134E-05 0.000E+00
          total   stress  (Ry/bohr**3)                   (kbar)     P=       -0.41
   0.00000009  -0.00000000   0.00000000            0.01       -0.00        0.00
  -0.00000000   0.00000010   0.00000001           -0.00        0.02        0.00
   0.00000000   0.00000001  -0.00000855            0.00        0.00       -1.26

     BFGS Geometry Optimization
     Energy error            =      0.0E+00 Ry
     Gradient error          =      6.8E-04 Ry/Bohr

     bfgs converged in   1 scf cycles and   0 bfgs steps
     (criteria: energy <  1.0E-04 Ry, force <  1.0E-03 Ry/Bohr)

     End of BFGS Geometry Optimization

     Final energy             =   -2066.1958795895 Ry
Begin final coordinates

ATOMIC_POSITIONS (alat)
Ta            0.0000016000        0.6115191000        0.6463304000
C             0.0000011000        0.0000025000        1.0244315000
Ta            0.5295906000        0.3057584000        1.4781888000
C            -0.0000007000        0.6115137000        1.9319461000
Ta           -0.0000013000       -0.0000030000        2.3100475000
End final coordinates

     Writing output data file /scratch/as3359/Ta3C2_loop/Ta.save/

     General routines

     Parallel routines

   This run was terminated on:   5:47:25  27Mar2022

   JOB DONE.