     Program PWSCF v.6.8 starts on 21Apr2022 at 21:11: 7

     R & G space division:  proc/nbgrp/npool/nimage =       2

     Reading input from Ta2CH.scf.in

     Current dimensions of program PWSCF are:
     Max number of different atomic species (ntypx) = 10
     Max number of k-points (npk) =  40000
     Max angular momentum in pseudopotentials (lmaxx) =  4
     file Ta.pbesol-spfn-rrkjus_psl.1.0.0.UPF: wavefunction(s)  5S 5P renormalized
     Message from routine setup:
     using ibrav=0 with symmetry is DISCOURAGED, use correct ibrav instead

     Subspace diagonalization in iterative solution of the eigenvalue problem:
     a serial algorithm will be used

     Using Slab Decomposition

     bravais-lattice index     =            0
     lattice parameter (alat)  =       5.5500  a.u.
     unit-cell volume          =    1604.3345 (a.u.)^3
     number of atoms/cell      =            4
     number of atomic types    =            3
     number of electrons       =        59.00
     number of Kohn-Sham states=           36
     kinetic-energy cutoff     =     150.0000  Ry
     charge density cutoff     =     700.0000  Ry
     scf convergence threshold =      1.0E-12
     mixing beta               =       0.7000
     number of iterations used =            8  plain     mixing
     Exchange-correlation= PBESOL
                           (   1   4  10   8   0   0   0)

     celldm(1)=   5.550000  celldm(2)=   0.000000  celldm(3)=   0.000000
     celldm(4)=   0.000000  celldm(5)=   0.000000  celldm(6)=   0.000000

     crystal axes: (cart. coord. in units of alat)
               a(1) = (   1.040981   0.000000   0.000000 )
               a(2) = (  -0.520490   0.901516   0.000000 )
               a(3) = (   0.000000   0.000000  10.000000 )

     reciprocal axes: (cart. coord. in units 2 pi/alat)
               b(1) = (  0.960633  0.554621  0.000000 )
               b(2) = (  0.000000  1.109243  0.000000 )
               b(3) = (  0.000000  0.000000  0.100000 )

     PseudoPot. # 1 for Ta read from file:
     /shared/home/as3359/pseudo/Ta.pbesol-spfn-rrkjus_psl.1.0.0.UPF
     MD5 check sum: f099565ffaca9b150a52e9412a28e20b
     Pseudo is Ultrasoft + core correction, Zval = 27.0
     Generated using &quot;atomic&quot; code by A. Dal Corso  v.6.3
     Using radial grid of 1273 points,  8 beta functions with:
                l(1) =   0
                l(2) =   0
                l(3) =   1
                l(4) =   1
                l(5) =   2
                l(6) =   2
                l(7) =   3
                l(8) =   3
     Q(r) pseudized with 0 coefficients

     PseudoPot. # 2 for C  read from file:
     /shared/home/as3359/pseudo/C.pbesol-n-rrkjus_psl.1.0.0.UPF
     MD5 check sum: 05995be603a8a7c99da3dc4413f31573
     Pseudo is Ultrasoft + core correction, Zval =  4.0
     Generated using &quot;atomic&quot; code by A. Dal Corso  v.6.3MaX
     Using radial grid of 1073 points,  4 beta functions with:
                l(1) =   0
                l(2) =   0
                l(3) =   1
                l(4) =   1
     Q(r) pseudized with 0 coefficients

     PseudoPot. # 3 for H  read from file:
     /shared/home/as3359/pseudo/H.pbesol-rrkjus_psl.0.1.UPF
     MD5 check sum: 1dbb1a5c48b1283557b8117eb856a7ca
     Pseudo is Ultrasoft, Zval =  1.0
     Generated using "atomic" code by A. Dal Corso  v.5.0.2 svn rev. 9415
     Using radial grid of  929 points,  2 beta functions with:
                l(1) =   0
                l(2) =   0
     Q(r) pseudized with 0 coefficients

     atomic species   valence    mass     pseudopotential
        Ta            27.00   180.94788     Ta( 1.00)
        C              4.00    12.01070     C ( 1.00)
        H              1.00     1.00000     H ( 1.00)

      6 Sym. Ops. (no inversion) found

   Cartesian axes

     site n.     atom                  positions (alat units)
         1           C   tau(   1) = (   0.0000000   0.0000000   0.0000000  )
         2           Ta  tau(   2) = (   0.5204903   0.3005052  -0.4156024  )
         3           Ta  tau(   3) = (   0.0000000   0.6010105   0.4260806  )
         4           H   tau(   4) = (   0.0000000   0.6010105   1.0359681  )

     number of k points=    27  Marzari-Vanderbilt smearing, width (Ry)=  0.0010
                       cart. coord. in units 2pi/alat
        k(    1) = (   0.0000000   0.0000000   0.0000000), wk =   0.0088889
        k(    2) = (   0.0000000   0.0739495   0.0000000), wk =   0.0533333
        k(    3) = (   0.0000000   0.1478991   0.0000000), wk =   0.0533333
        k(    4) = (   0.0000000   0.2218486   0.0000000), wk =   0.0533333
        k(    5) = (   0.0000000   0.2957981   0.0000000), wk =   0.0533333
        k(    6) = (   0.0000000   0.3697477   0.0000000), wk =   0.0533333
        k(    7) = (   0.0000000   0.4436972   0.0000000), wk =   0.0533333
        k(    8) = (   0.0000000   0.5176467   0.0000000), wk =   0.0533333
        k(    9) = (   0.0640422   0.1109243   0.0000000), wk =   0.0533333
        k(   10) = (   0.0640422   0.1848738   0.0000000), wk =   0.1066667
        k(   11) = (   0.0640422   0.2588234   0.0000000), wk =   0.1066667
        k(   12) = (   0.0640422   0.3327729   0.0000000), wk =   0.1066667
        k(   13) = (   0.0640422   0.4067224   0.0000000), wk =   0.1066667
        k(   14) = (   0.0640422   0.4806720   0.0000000), wk =   0.1066667
        k(   15) = (   0.0640422   0.5546215   0.0000000), wk =   0.0533333
        k(   16) = (   0.1280843   0.2218486   0.0000000), wk =   0.0533333
        k(   17) = (   0.1280843   0.2957981   0.0000000), wk =   0.1066667
        k(   18) = (   0.1280843   0.3697477   0.0000000), wk =   0.1066667
        k(   19) = (   0.1280843   0.4436972   0.0000000), wk =   0.1066667
        k(   20) = (   0.1280843   0.5176467   0.0000000), wk =   0.1066667
        k(   21) = (   0.1921265   0.3327729   0.0000000), wk =   0.0533333
        k(   22) = (   0.1921265   0.4067224   0.0000000), wk =   0.1066667
        k(   23) = (   0.1921265   0.4806720   0.0000000), wk =   0.1066667
        k(   24) = (   0.1921265   0.5546215   0.0000000), wk =   0.0533333
        k(   25) = (   0.2561687   0.4436972   0.0000000), wk =   0.0533333
        k(   26) = (   0.2561687   0.5176467   0.0000000), wk =   0.1066667
        k(   27) = (   0.3202109   0.5546215   0.0000000), wk =   0.0177778

     Initial potential from superposition of free atoms

     starting charge   58.99841, renormalised to   59.00000

     negative rho (up, down):  4.890E-05 0.000E+00
     Starting wfcs are   39 randomized atomic wfcs

     Self-consistent Calculation

     iteration #  1     ecut=   150.00 Ry     beta= 0.70
     Davidson diagonalization with overlap
     ethr =  1.00E-02,  avg # of iterations =  2.2

     negative rho (up, down):  1.739E-05 0.000E+00

     total energy              =   -1373.17816139 Ry
     estimated scf accuracy    <       1.75041470 Ry

[...]

     total energy              =   -1374.38646097 Ry
     estimated scf accuracy    <          1.9E-12 Ry

     iteration # 23     ecut=   150.00 Ry     beta= 0.70
     Davidson diagonalization with overlap
     ethr =  1.00E-13,  avg # of iterations =  1.0

[...]

     End of self-consistent calculation

          k = 0.0000 0.0000 0.0000 ( 49849 PWs)   bands (ev):

   -69.2056 -68.8676 -36.0286 -35.3283 -35.3283 -35.2727 -35.1240 -35.1240
   -20.8845 -20.8480 -20.8480 -20.8385 -20.8385 -20.8163 -20.7544 -20.5445
   -20.5056 -20.5056 -20.4815 -20.4533 -20.4445 -20.4445 -14.0446  -8.4975
    -5.0075  -5.0075  -4.3622  -2.8725  -1.7745  -1.0249  -1.0249   0.9466
     0.9466   1.9199   1.9199   2.4899

[...]

          k = 0.3202 0.5546 0.0000 ( 49815 PWs)   bands (ev):

   -69.1546 -68.8179 -35.8723 -35.8591 -35.8146 -35.5904 -35.5040 -35.2121
   -20.8634 -20.8623 -20.8615 -20.8359 -20.8267 -20.8003 -20.7715 -20.5284
   -20.5031 -20.4992 -20.4945 -20.4598 -20.4592 -20.4321 -12.3396  -6.9082
    -6.7867  -5.3178  -2.1475  -1.9113  -1.7601  -1.5839  -0.4884   1.5264
     2.1975   2.5055   4.3177   5.5586

     the Fermi energy is    -1.2065 ev

!    total energy              =   -1374.38646097 Ry
     estimated scf accuracy    <          1.9E-13 Ry
     smearing contrib. (-TS)   =      -0.00000131 Ry
     internal energy E=F+TS    =   -1374.38645967 Ry

     The total energy is F=E-TS. E is the sum of the following terms:
     one-electron contribution =  -10960.04213807 Ry
     hartree contribution      =    5506.95384728 Ry
     xc contribution           =    -139.42542882 Ry
     ewald contribution        =    4218.12725994 Ry

     convergence has been achieved in  23 iterations

     negative rho (up, down):  7.009E-05 0.000E+00

     Forces acting on atoms (cartesian axes, Ry/au):

     atom    1 type  2   force =     0.00000000    0.00000000    0.00087915
     atom    2 type  1   force =     0.00000000    0.00000000    0.00001237
     atom    3 type  1   force =    -0.00000000   -0.00000000   -0.00087343
     atom    4 type  3   force =     0.00000000    0.00000000   -0.00001809

     Total force =     0.001239     Total SCF correction =     0.000005

     Computing stress (Cartesian axis) and pressure

     negative rho (up, down):  7.009E-05 0.000E+00
          total   stress  (Ry/bohr**3)                   (kbar)     P=       -0.30
  -0.00000188   0.00000000  -0.00000000           -0.28        0.00       -0.00
   0.00000000  -0.00000188  -0.00000000            0.00       -0.28       -0.00
  -0.00000000  -0.00000000  -0.00000229           -0.00       -0.00       -0.34

     Writing output data file /scratch/as3359/Ta2CH_bandsdos/Ta.save/

     General routines

     Parallel routines

   This run was terminated on:  21:18:44  21Apr2022

   JOB DONE.