     Program PWSCF v.6.8 starts on 29Mar2022 at 14:58: 5

     R & G space division:  proc/nbgrp/npool/nimage =       2

     Reading input from Ta2C.vcrelax.in

     Current dimensions of program PWSCF are:
     Max number of different atomic species (ntypx) = 10
     Max number of k-points (npk) =  40000
     Max angular momentum in pseudopotentials (lmaxx) =  4
     file Ta.pbesol-spfn-rrkjus_psl.1.0.0.UPF: wavefunction(s)  5S 5P renormalized
     Message from routine setup:
     using ibrav=0 with symmetry is DISCOURAGED, use correct ibrav instead

     Subspace diagonalization in iterative solution of the eigenvalue problem:
     a serial algorithm will be used

     Using Slab Decomposition

     bravais-lattice index     =            0
     lattice parameter (alat)  =       5.5500  a.u.
     unit-cell volume          =    1603.2166 (a.u.)^3
     number of atoms/cell      =            3
     number of atomic types    =            2
     number of electrons       =        58.00
     number of Kohn-Sham states=           35
     kinetic-energy cutoff     =      70.0000  Ry
     charge density cutoff     =     700.0000  Ry
     scf convergence threshold =      1.0E-12
     mixing beta               =       0.7000
     number of iterations used =            8  plain     mixing
     energy convergence thresh.=      1.0E-04
     force convergence thresh. =      1.0E-03
     press convergence thresh. =      5.0E-01
     Exchange-correlation= PBESOL
                           (   1   4  10   8   0   0   0)
     nstep                     =           50

     celldm(1)=   5.550000  celldm(2)=   0.000000  celldm(3)=   0.000000
     celldm(4)=   0.000000  celldm(5)=   0.000000  celldm(6)=   0.000000

     crystal axes: (cart. coord. in units of alat)
               a(1) = (   1.040618   0.000000   0.000000 )
               a(2) = (  -0.520309   0.901202   0.000000 )
               a(3) = (   0.000000   0.000000  10.000000 )

     reciprocal axes: (cart. coord. in units 2 pi/alat)
               b(1) = (  0.960967  0.554815  0.000000 )
               b(2) = (  0.000000  1.109630  0.000000 )
               b(3) = (  0.000000  0.000000  0.100000 )

     PseudoPot. # 1 for Ta read from file:
     /shared/home/lcp34/Ta2C_1_pseudo/Ta.pbesol-spfn-rrkjus_psl.1.0.0.UPF
     MD5 check sum: 1207a2a74ffe9312df441bb049ef2fda
     Pseudo is Ultrasoft + core correction, Zval = 27.0
     Generated using &quot;atomic&quot; code by A. Dal Corso  v.6.3
     Using radial grid of 1273 points,  8 beta functions with:
                l(1) =   0
                l(2) =   0
                l(3) =   1
                l(4) =   1
                l(5) =   2
                l(6) =   2
                l(7) =   3
                l(8) =   3
     Q(r) pseudized with 0 coefficients

     PseudoPot. # 2 for C  read from file:
     /shared/home/lcp34/Ta2C_1_pseudo/C.pbesol-n-rrkjus_psl.1.0.0.UPF
     MD5 check sum: 501c6de2a498b658dec7f8fb4a585abe
     Pseudo is Ultrasoft + core correction, Zval =  4.0
     Generated using &quot;atomic&quot; code by A. Dal Corso  v.6.3MaX
     Using radial grid of 1073 points,  4 beta functions with:
                l(1) =   0
                l(2) =   0
                l(3) =   1
                l(4) =   1
     Q(r) pseudized with 0 coefficients

     atomic species   valence    mass     pseudopotential
        Ta            27.00   180.94788     Ta( 1.00)
        C              4.00    12.01070     C ( 1.00)

     12 Sym. Ops., with inversion, found

   Cartesian axes

     site n.     atom                  positions (alat units)
         1           C   tau(   1) = (   0.0000000   0.0000000   0.0000000  )
         2           Ta  tau(   2) = (   0.5203090   0.3004005  -0.4101496  )
         3           Ta  tau(   3) = (  -0.0000000   0.6008011   0.4101496  )

     number of k points=    19  Marzari-Vanderbilt smearing, width (Ry)=  0.0010
                       cart. coord. in units 2pi/alat
        k(    1) = (   0.0000000   0.0000000   0.0000000), wk =   0.0138889
        k(    2) = (   0.0000000   0.0924691   0.0000000), wk =   0.0833333
        k(    3) = (   0.0000000   0.1849383   0.0000000), wk =   0.0833333
        k(    4) = (   0.0000000   0.2774074   0.0000000), wk =   0.0833333
        k(    5) = (   0.0000000   0.3698766   0.0000000), wk =   0.0833333
        k(    6) = (   0.0000000   0.4623457   0.0000000), wk =   0.0833333
        k(    7) = (   0.0000000  -0.5548148   0.0000000), wk =   0.0416667
        k(    8) = (   0.0800806   0.1387037   0.0000000), wk =   0.0833333
        k(    9) = (   0.0800806   0.2311728   0.0000000), wk =   0.1666667
        k(   10) = (   0.0800806   0.3236420   0.0000000), wk =   0.1666667
        k(   11) = (   0.0800806   0.4161111   0.0000000), wk =   0.1666667
        k(   12) = (   0.0800806   0.5085803   0.0000000), wk =   0.1666667
        k(   13) = (   0.1601612   0.2774074   0.0000000), wk =   0.0833333
        k(   14) = (   0.1601612   0.3698766   0.0000000), wk =   0.1666667
        k(   15) = (   0.1601612   0.4623457   0.0000000), wk =   0.1666667
        k(   16) = (   0.1601612   0.5548148   0.0000000), wk =   0.0833333
        k(   17) = (   0.2402419   0.4161111   0.0000000), wk =   0.0833333
        k(   18) = (   0.2402419   0.5085803   0.0000000), wk =   0.1666667
        k(   19) = (   0.3203225   0.5548148   0.0000000), wk =   0.0277778

     Initial potential from superposition of free atoms

     starting charge   57.99842, renormalised to   58.00000

     negative rho (up, down):  5.520E-05 0.000E+00
     Starting wfcs are   38 randomized atomic wfcs

     Self-consistent Calculation

     iteration #  1     ecut=    70.00 Ry     beta= 0.70
     Davidson diagonalization with overlap
     ethr =  1.00E-02,  avg # of iterations =  2.2

     negative rho (up, down):  1.372E-05 0.000E+00

     total energy              =   -1372.45391969 Ry
     estimated scf accuracy    <       1.29358603 Ry

     iteration #  2     ecut=    70.00 Ry     beta= 0.70
     Davidson diagonalization with overlap
     ethr =  2.23E-03,  avg # of iterations = 10.5
     Minimization algorithm failed to find Fermi energy: reverting to bisection
     Possible cause: smearing is larger than the electronic band-gap.

[...]

     End of self-consistent calculation

          k = 0.0000 0.0000 0.0000 ( 15945 PWs)   bands (ev):

   -68.3665 -68.3176 -35.3862 -34.7811 -34.4924 -34.4924 -34.4236 -34.4236
   -20.0347 -20.0215 -19.9976 -19.9976 -19.9925 -19.9925 -19.9650 -19.9650
   -19.9584 -19.9584 -19.9467 -19.9416 -19.8828 -19.8812 -13.3062  -7.7231
    -4.4718  -4.4718  -1.9673  -1.0297  -0.8110  -0.2931  -0.2931   1.6511
     1.6511   2.7980   2.7980

[...]

     the Fermi energy is    -0.2676 ev

!    total energy              =   -1373.25230796 Ry
     estimated scf accuracy    <          1.5E-13 Ry
     smearing contrib. (-TS)   =       0.00000332 Ry
     internal energy E=F+TS    =   -1373.25231128 Ry

     The total energy is F=E-TS. E is the sum of the following terms:
     one-electron contribution =  -10822.39368201 Ry
     hartree contribution      =    5439.34590432 Ry
     xc contribution           =    -138.76391305 Ry
     ewald contribution        =    4148.55937946 Ry

     convergence has been achieved in  18 iterations

[...]

     Forces acting on atoms (cartesian axes, Ry/au):

     atom    1 type  2   force =     0.00000000   -0.00000000    0.00000000
     atom    2 type  1   force =     0.00000000    0.00000000   -0.00070004
     atom    3 type  1   force =    -0.00000000   -0.00000000    0.00070004

     Total force =     0.000990     Total SCF correction =     0.000004

     Computing stress (Cartesian axis) and pressure

     negative rho (up, down):  6.549E-05 0.000E+00
          total   stress  (Ry/bohr**3)                   (kbar)     P=       -0.45
  -0.00000360   0.00000000   0.00000000           -0.53        0.00        0.00
   0.00000000  -0.00000360   0.00000000            0.00       -0.53        0.00
   0.00000000   0.00000000  -0.00000197            0.00        0.00       -0.29

     BFGS Geometry Optimization
     Energy error            =      0.0E+00 Ry
     Gradient error          =      7.0E-04 Ry/Bohr
     Cell gradient error     =      5.3E-01 kbar

     number of scf cycles    =   1
     number of bfgs steps    =   0

     enthalpy           new  =   -1373.2523079582 Ry

     new trust radius        =       0.0007210041 bohr
     new conv_thr            =            1.0E-12 Ry

     new unit-cell volume =   1602.92796 a.u.^3 (   237.52942 Ang^3 )
     density =      2.61393 g/cm^3

CELL_PARAMETERS (alat=  5.55000000)
   1.040524263   0.000000000   0.000000000
  -0.520262131   0.901120444   0.000000000
   0.000000000   0.000000000  10.000000000

ATOMIC_POSITIONS (crystal)
C             0.0000000000        0.0000000000        0.0000000000    0   0   0
Ta            0.6666666670        0.3333333330       -0.0410275725
Ta            0.3333333330        0.6666666670        0.0410275725

     Writing output data file /scratch/lcp34/Ta2C_loop/Ta.save/
     NEW-OLD atomic charge density approx. for the potential

     negative rho (up, down):  6.511E-05 0.000E+00
     extrapolated charge   57.98955, renormalised to   58.00000

[...]

          k =-0.0000 0.0925 0.0000 ( 15937 PWs)   bands (ev):

[...]

     Energy error            =      1.8E-06 Ry
     Gradient error          =      3.9E-04 Ry/Bohr
     Cell gradient error     =      4.8E-01 kbar

     bfgs converged in   2 scf cycles and   1 bfgs steps
     (criteria: energy <  1.0E-04 Ry, force <  1.0E-03Ry/Bohr, cell <  5.0E-01kbar)

     End of BFGS Geometry Optimization

     Final enthalpy           =   -1373.2523097111 Ry

     File /scratch/lcp34/Ta2C_loop/Ta.bfgs deleted, as requested
Begin final coordinates
     new unit-cell volume =   1602.92796 a.u.^3 (   237.52942 Ang^3 )
     density =      2.61393 g/cm^3

CELL_PARAMETERS (alat=  5.55000000)
   1.040524263   0.000000000   0.000000000
  -0.520262131   0.901120444   0.000000000
   0.000000000   0.000000000  10.000000000

ATOMIC_POSITIONS (crystal)
C             0.0000000000        0.0000000000        0.0000000000    0   0   0
Ta            0.6666666670        0.3333333330       -0.0410275725
Ta            0.3333333330        0.6666666670        0.0410275725
End final coordinates

     Writing output data file /scratch/lcp34/Ta2C_loop/Ta.save/

     Final scf calculation at the relaxed structure.
     The G-vectors are recalculated for the final unit cell
     Results may differ from those at the preceding step.

     Using Slab Decomposition

     bravais-lattice index     =            0
     lattice parameter (alat)  =       5.5500  a.u.
     unit-cell volume          =    1602.9280 (a.u.)^3
     number of atoms/cell      =            3
     number of atomic types    =            2
     number of electrons       =        58.00
     number of Kohn-Sham states=           35
     kinetic-energy cutoff     =      70.0000  Ry
     charge density cutoff     =     700.0000  Ry
     scf convergence threshold =      1.0E-12
     mixing beta               =       0.7000
     number of iterations used =            8  plain     mixing
     press convergence thresh. =      5.0E-01
     Exchange-correlation= PBESOL
                           (   1   4  10   8   0   0   0)

     celldm(1)=   5.550000  celldm(2)=   0.000000  celldm(3)=   0.000000
     celldm(4)=   0.000000  celldm(5)=   0.000000  celldm(6)=   0.000000

     crystal axes: (cart. coord. in units of alat)
               a(1) = (   1.040524   0.000000   0.000000 )
               a(2) = (  -0.520262   0.901120   0.000000 )
               a(3) = (   0.000000   0.000000  10.000000 )

     reciprocal axes: (cart. coord. in units 2 pi/alat)
               b(1) = (  0.961054  0.554865  0.000000 )
               b(2) = ( -0.000000  1.109730  0.000000 )
               b(3) = (  0.000000  0.000000  0.100000 )

     PseudoPot. # 1 for Ta read from file:
     /shared/home/lcp34/Ta2C_1_pseudo/Ta.pbesol-spfn-rrkjus_psl.1.0.0.UPF
     MD5 check sum: 1207a2a74ffe9312df441bb049ef2fda
     Pseudo is Ultrasoft + core correction, Zval = 27.0
     Generated using &quot;atomic&quot; code by A. Dal Corso  v.6.3
     Using radial grid of 1273 points,  8 beta functions with:
                l(1) =   0
                l(2) =   0
                l(3) =   1
                l(4) =   1
                l(5) =   2
                l(6) =   2
                l(7) =   3
                l(8) =   3
     Q(r) pseudized with 0 coefficients

     PseudoPot. # 2 for C  read from file:
     /shared/home/lcp34/Ta2C_1_pseudo/C.pbesol-n-rrkjus_psl.1.0.0.UPF
     MD5 check sum: 501c6de2a498b658dec7f8fb4a585abe
     Pseudo is Ultrasoft + core correction, Zval =  4.0
     Generated using &quot;atomic&quot; code by A. Dal Corso  v.6.3MaX
     Using radial grid of 1073 points,  4 beta functions with:
                l(1) =   0
                l(2) =   0
                l(3) =   1
                l(4) =   1
     Q(r) pseudized with 0 coefficients

     atomic species   valence    mass     pseudopotential
        Ta            27.00   180.94788     Ta( 1.00)
        C              4.00    12.01070     C ( 1.00)

     12 Sym. Ops., with inversion, found

   Cartesian axes

     site n.     atom                  positions (alat units)
         1           C   tau(   1) = (   0.0000000   0.0000000   0.0000000  )
         2           Ta  tau(   2) = (   0.5202621   0.3003735  -0.4102757  )
         3           Ta  tau(   3) = (  -0.0000000   0.6007470   0.4102757  )

     number of k points=    19  Marzari-Vanderbilt smearing, width (Ry)=  0.0010
                       cart. coord. in units 2pi/alat
        k(    1) = (   0.0000000   0.0000000   0.0000000), wk =   0.0138889
        k(    2) = (  -0.0000000   0.0924775   0.0000000), wk =   0.0833333
        k(    3) = (  -0.0000000   0.1849549   0.0000000), wk =   0.0833333
        k(    4) = (  -0.0000000   0.2774324   0.0000000), wk =   0.0833333
        k(    5) = (  -0.0000000   0.3699099   0.0000000), wk =   0.0833333
        k(    6) = (  -0.0000000   0.4623873   0.0000000), wk =   0.0833333
        k(    7) = (   0.0000000  -0.5548648   0.0000000), wk =   0.0416667
        k(    8) = (   0.0800878   0.1387162   0.0000000), wk =   0.0833333
        k(    9) = (   0.0800878   0.2311937   0.0000000), wk =   0.1666667
        k(   10) = (   0.0800878   0.3236711   0.0000000), wk =   0.1666667
        k(   11) = (   0.0800878   0.4161486   0.0000000), wk =   0.1666667
        k(   12) = (   0.0800878   0.5086261   0.0000000), wk =   0.1666667
        k(   13) = (   0.1601757   0.2774324   0.0000000), wk =   0.0833333
        k(   14) = (   0.1601757   0.3699099   0.0000000), wk =   0.1666667
        k(   15) = (   0.1601757   0.4623873   0.0000000), wk =   0.1666667
        k(   16) = (   0.1601757   0.5548648   0.0000000), wk =   0.0833333
        k(   17) = (   0.2402635   0.4161486   0.0000000), wk =   0.0833333
        k(   18) = (   0.2402635   0.5086261   0.0000000), wk =   0.1666667
        k(   19) = (   0.3203513   0.5548648   0.0000000), wk =   0.0277778

     Initial potential from superposition of free atoms

     starting charge   57.99842, renormalised to   58.00000

     negative rho (up, down):  5.504E-05 0.000E+00
     Starting wfcs are   38 randomized atomic wfcs

     Self-consistent Calculation

     iteration #  1     ecut=    70.00 Ry     beta= 0.70
     Davidson diagonalization with overlap
     c_bands:  2 eigenvalues not converged
     c_bands:  1 eigenvalues not converged
     c_bands:  1 eigenvalues not converged
     c_bands:  1 eigenvalues not converged
     ethr =  1.00E-06,  avg # of iterations = 16.4

[...]

     iteration #  8     ecut=    70.00 Ry     beta= 0.70
     Davidson diagonalization with overlap
     ethr =  9.27E-06,  avg # of iterations =  3.9
     Minimization algorithm failed to find Fermi energy: reverting to bisection
     Possible cause: smearing is larger than the electronic band-gap.

[...]

     total energy              =   -1373.25230824 Ry
     estimated scf accuracy    <          2.8E-12 Ry

     iteration # 21     ecut=    70.00 Ry     beta= 0.70
     Davidson diagonalization with overlap
     ethr =  1.00E-13,  avg # of iterations =  1.0

[...]

     End of self-consistent calculation

[...]

          k =-0.0000 0.4624 0.0000 ( 15850 PWs)   bands (ev):

[...]

          k = 0.3204 0.5549 0.0000 ( 15774 PWs)   bands (ev):

   -68.2912 -68.2912 -35.1134 -35.1134 -35.0731 -34.8474 -34.7533 -34.7533
   -20.0138 -20.0064 -20.0064 -19.9989 -19.9989 -19.9898 -19.9815 -19.9572
   -19.9572 -19.9527 -19.9269 -19.9269 -19.8985 -19.8985 -11.6721  -6.1283
    -6.1283  -4.5008  -1.2079  -1.0791  -1.0791   0.3240   2.3338   2.3338
     3.3834   3.3834   6.5165

     the Fermi energy is    -0.2666 ev

!    total energy              =   -1373.25230824 Ry
     estimated scf accuracy    <          1.1E-13 Ry
     smearing contrib. (-TS)   =       0.00000361 Ry
     internal energy E=F+TS    =   -1373.25231185 Ry

     The total energy is F=E-TS. E is the sum of the following terms:
     one-electron contribution =  -10823.25865980 Ry
     hartree contribution      =    5439.77961856 Ry
     xc contribution           =    -138.76376370 Ry
     ewald contribution        =    4148.99049309 Ry

     convergence has been achieved in  21 iterations

     negative rho (up, down):  6.543E-05 0.000E+00

     Forces acting on atoms (cartesian axes, Ry/au):

     atom    1 type  2   force =    -0.00000000    0.00000000    0.00000000
     atom    2 type  1   force =     0.00000000    0.00000000   -0.00038660
     atom    3 type  1   force =     0.00000000    0.00000000    0.00038660

     Total force =     0.000547     Total SCF correction =     0.000005

     Computing stress (Cartesian axis) and pressure

     negative rho (up, down):  6.543E-05 0.000E+00
          total   stress  (Ry/bohr**3)                   (kbar)     P=       -0.46
  -0.00000328   0.00000000   0.00000000           -0.48        0.00        0.00
   0.00000000  -0.00000328   0.00000000            0.00       -0.48        0.00
   0.00000000   0.00000000  -0.00000286            0.00        0.00       -0.42

     Writing output data file /scratch/lcp34/Ta2C_loop/Ta.save/

     General routines

     Parallel routines

   This run was terminated on:  15: 6:36  29Mar2022

   JOB DONE.