     Program PWSCF v.6.8 starts on  8Apr2022 at 17:50:32

     R & G space division:  proc/nbgrp/npool/nimage =       2

     Reading input from MoS2.vcrelax.in

     Current dimensions of program PWSCF are:
     Max number of different atomic species (ntypx) = 10
     Max number of k-points (npk) =  40000
     Max angular momentum in pseudopotentials (lmaxx) =  4
     file Mo.pbesol-spn-kjpaw_psl.1.0.0.UPF: wavefunction(s)  4S 4D renormalized
     file S.pbesol-nl-kjpaw_psl.1.0.0.UPF: wavefunction(s)  3S renormalized
     Message from routine setup:
     using ibrav=0 with symmetry is DISCOURAGED, use correct ibrav instead

     Subspace diagonalization in iterative solution of the eigenvalue problem:
     a serial algorithm will be used

     Using Slab Decomposition

     bravais-lattice index     =            0
     lattice parameter (alat)  =       6.0720  a.u.
     unit-cell volume          =    1479.6792 (a.u.)^3
     number of atoms/cell      =            6
     number of atomic types    =            2
     number of electrons       =        52.00
     number of Kohn-Sham states=           26
     kinetic-energy cutoff     =      60.0000  Ry
     charge density cutoff     =     300.0000  Ry
     scf convergence threshold =      1.0E-12
     mixing beta               =       0.3000
     number of iterations used =            8  plain     mixing
     energy convergence thresh.=      1.0E-04
     force convergence thresh. =      1.0E-03
     press convergence thresh. =      5.0E-01
     Exchange-correlation= SLA  PW   PSX  PSC
                           (   1   4  10   8   0   0   0)
     nstep                     =           50

     celldm(1)=   6.072000  celldm(2)=   0.000000  celldm(3)=   0.000000
     celldm(4)=   0.000000  celldm(5)=   0.000000  celldm(6)=   0.000000

     crystal axes: (cart. coord. in units of alat)
               a(1) = (   0.976384  -0.000017   0.000000 )
               a(2) = (  -0.487931   0.846187   0.000000 )
               a(3) = (   0.000000   0.000000   8.000000 )

     reciprocal axes: (cart. coord. in units 2 pi/alat)
               b(1) = (  1.024198  0.590577  0.000000 )
               b(2) = (  0.000021  1.181785  0.000000 )
               b(3) = (  0.000000  0.000000  0.125000 )

     PseudoPot. # 1 for Mo read from file:
     /shared/home/as3359/pseudo/Mo.pbesol-spn-kjpaw_psl.1.0.0.UPF
     MD5 check sum: de57925cfc675213e43241dcc441eda8
     Pseudo is Projector augmented-wave + core cor, Zval = 14.0
     Generated using &quot;atomic&quot; code by A. Dal Corso  v.6.3
     Shape of augmentation charge: PSQ
     Using radial grid of 1229 points,  6 beta functions with:
                l(1) =   0
                l(2) =   0
                l(3) =   1
                l(4) =   1
                l(5) =   2
                l(6) =   2
     Q(r) pseudized with 0 coefficients

     PseudoPot. # 2 for S  read from file:
     /shared/home/as3359/pseudo/S.pbesol-nl-kjpaw_psl.1.0.0.UPF
     MD5 check sum: bf3db50ec3f960682bbc396f1aadd1dd
     Pseudo is Projector augmented-wave + core cor, Zval =  6.0
     Generated using &quot;atomic&quot; code by A. Dal Corso  v.6.3
     Shape of augmentation charge: PSQ
     Using radial grid of 1151 points,  4 beta functions with:
                l(1) =   0
                l(2) =   0
                l(3) =   1
                l(4) =   1
     Q(r) pseudized with 0 coefficients

     atomic species   valence    mass     pseudopotential
        Mo            14.00    95.94000     Mo( 1.00)
        S              6.00    32.06500     S ( 1.00)

      2 Sym. Ops., with inversion, found ( 1 have fractional translation)

   Cartesian axes

     site n.     atom                  positions (alat units)
         1           Mo  tau(   1) = (   0.0000000   0.0000000   1.2000000  )
         2           S   tau(   2) = (   0.4883508   0.2821722   1.6000000  )
         3           S   tau(   3) = (   0.4883508   0.2821722   0.8000000  )
         4           Mo  tau(   4) = (   0.0000000   0.0000000   2.8000000  )
         5           S   tau(   5) = (  -0.4883508  -0.2821722   3.2000000  )
         6           S   tau(   6) = (  -0.4883508  -0.2821722   2.4000000  )

     number of k points=    74
                       cart. coord. in units 2pi/alat
        k(    1) = (   0.0000000   0.0000000   0.0000000), wk =   0.0138889
        k(    2) = (   0.0000017   0.0984820   0.0000000), wk =   0.0277778
        k(    3) = (   0.0000035   0.1969641   0.0000000), wk =   0.0277778
        k(    4) = (   0.0000052   0.2954461   0.0000000), wk =   0.0277778
        k(    5) = (   0.0000070   0.3939282   0.0000000), wk =   0.0277778
        k(    6) = (   0.0000087   0.4924102   0.0000000), wk =   0.0277778
        k(    7) = (  -0.0000105  -0.5908923   0.0000000), wk =   0.0138889
        k(    8) = (   0.0853498   0.0492147   0.0000000), wk =   0.0277778
        k(    9) = (   0.0853516   0.1476968   0.0000000), wk =   0.0277778
        k(   10) = (   0.0853533   0.2461788   0.0000000), wk =   0.0277778
        k(   11) = (   0.0853550   0.3446609   0.0000000), wk =   0.0277778
        k(   12) = (   0.0853568   0.4431429   0.0000000), wk =   0.0277778
        k(   13) = (   0.0853585   0.5416249   0.0000000), wk =   0.0277778
        k(   14) = (   0.0853394  -0.5416775   0.0000000), wk =   0.0277778
        k(   15) = (   0.0853411  -0.4431955   0.0000000), wk =   0.0277778
        k(   16) = (   0.0853428  -0.3447135   0.0000000), wk =   0.0277778
        k(   17) = (   0.0853446  -0.2462314   0.0000000), wk =   0.0277778
        k(   18) = (   0.0853463  -0.1477494   0.0000000), wk =   0.0277778
        k(   19) = (   0.0853481  -0.0492673   0.0000000), wk =   0.0277778
        k(   20) = (   0.1706996   0.0984294   0.0000000), wk =   0.0277778
        k(   21) = (   0.1707014   0.1969115   0.0000000), wk =   0.0277778
        k(   22) = (   0.1707031   0.2953935   0.0000000), wk =   0.0277778
        k(   23) = (   0.1707049   0.3938756   0.0000000), wk =   0.0277778
        k(   24) = (   0.1707066   0.4923576   0.0000000), wk =   0.0277778
        k(   25) = (   0.1707083   0.5908397   0.0000000), wk =   0.0277778
        k(   26) = (   0.1706892  -0.4924628   0.0000000), wk =   0.0277778
        k(   27) = (   0.1706909  -0.3939808   0.0000000), wk =   0.0277778
        k(   28) = (   0.1706927  -0.2954987   0.0000000), wk =   0.0277778
        k(   29) = (   0.1706944  -0.1970167   0.0000000), wk =   0.0277778
        k(   30) = (   0.1706961  -0.0985346   0.0000000), wk =   0.0277778
        k(   31) = (   0.1706979  -0.0000526   0.0000000), wk =   0.0277778
        k(   32) = (   0.2560494   0.1476442   0.0000000), wk =   0.0277778
        k(   33) = (   0.2560512   0.2461262   0.0000000), wk =   0.0277778
        k(   34) = (   0.2560529   0.3446082   0.0000000), wk =   0.0277778
        k(   35) = (   0.2560547   0.4430903   0.0000000), wk =   0.0277778
        k(   36) = (   0.2560564   0.5415723   0.0000000), wk =   0.0277778
        k(   37) = (   0.2560582   0.6400544   0.0000000), wk =   0.0277778
        k(   38) = (   0.2560390  -0.4432481   0.0000000), wk =   0.0277778
        k(   39) = (   0.2560407  -0.3447661   0.0000000), wk =   0.0277778
        k(   40) = (   0.2560425  -0.2462840   0.0000000), wk =   0.0277778
        k(   41) = (   0.2560442  -0.1478020   0.0000000), wk =   0.0277778
        k(   42) = (   0.2560460  -0.0493199   0.0000000), wk =   0.0277778
        k(   43) = (   0.2560477   0.0491621   0.0000000), wk =   0.0277778
        k(   44) = (   0.3413993   0.1968589   0.0000000), wk =   0.0277778
        k(   45) = (   0.3414010   0.2953409   0.0000000), wk =   0.0277778
        k(   46) = (   0.3414027   0.3938230   0.0000000), wk =   0.0277778
        k(   47) = (   0.3414045   0.4923050   0.0000000), wk =   0.0277778
        k(   48) = (   0.3414062   0.5907871   0.0000000), wk =   0.0277778
        k(   49) = (   0.3414080   0.6892691   0.0000000), wk =   0.0277778
        k(   50) = (   0.3413888  -0.3940334   0.0000000), wk =   0.0277778
        k(   51) = (   0.3413905  -0.2955513   0.0000000), wk =   0.0277778
        k(   52) = (   0.3413923  -0.1970693   0.0000000), wk =   0.0277778
        k(   53) = (   0.3413940  -0.0985872   0.0000000), wk =   0.0277778
        k(   54) = (   0.3413958  -0.0001052   0.0000000), wk =   0.0277778
        k(   55) = (   0.3413975   0.0983768   0.0000000), wk =   0.0277778
        k(   56) = (   0.4267491   0.2460736   0.0000000), wk =   0.0277778
        k(   57) = (   0.4267508   0.3445556   0.0000000), wk =   0.0277778
        k(   58) = (   0.4267526   0.4430377   0.0000000), wk =   0.0277778
        k(   59) = (   0.4267543   0.5415197   0.0000000), wk =   0.0277778
        k(   60) = (   0.4267560   0.6400018   0.0000000), wk =   0.0277778
        k(   61) = (   0.4267578   0.7384838   0.0000000), wk =   0.0277778
        k(   62) = (   0.4267386  -0.3448187   0.0000000), wk =   0.0277778
        k(   63) = (   0.4267404  -0.2463366   0.0000000), wk =   0.0277778
        k(   64) = (   0.4267421  -0.1478546   0.0000000), wk =   0.0277778
        k(   65) = (   0.4267438  -0.0493725   0.0000000), wk =   0.0277778
        k(   66) = (   0.4267456   0.0491095   0.0000000), wk =   0.0277778
        k(   67) = (   0.4267473   0.1475916   0.0000000), wk =   0.0277778
        k(   68) = (  -0.5120989  -0.2952883   0.0000000), wk =   0.0138889
        k(   69) = (  -0.5120971  -0.1968063   0.0000000), wk =   0.0277778
        k(   70) = (  -0.5120954  -0.0983242   0.0000000), wk =   0.0277778
        k(   71) = (  -0.5120937   0.0001578   0.0000000), wk =   0.0277778
        k(   72) = (  -0.5120919   0.0986398   0.0000000), wk =   0.0277778
        k(   73) = (  -0.5120902   0.1971219   0.0000000), wk =   0.0277778
        k(   74) = (  -0.5121093  -0.8861806   0.0000000), wk =   0.0138889

     Initial potential from superposition of free atoms

     starting charge   51.99828, renormalised to   52.00000

     negative rho (up, down):  3.422E-04 0.000E+00
     Starting wfcs are   36 randomized atomic wfcs
     Checking if some PAW data can be deallocated...

     Self-consistent Calculation

     iteration #  1     ecut=    60.00 Ry     beta= 0.30
     Davidson diagonalization with overlap
     ethr =  1.00E-02,  avg # of iterations =  2.0

     Threshold (ethr) on eigenvalues was too large:
     Diagonalizing with lowered threshold

     Davidson diagonalization with overlap
     ethr =  3.38E-04,  avg # of iterations =  4.6

     negative rho (up, down):  3.596E-04 0.000E+00

     total energy              =    -979.21335564 Ry
     estimated scf accuracy    <       0.25797169 Ry

[...]

     End of self-consistent calculation

          k = 0.0000 0.0000 0.0000 ( 11709 PWs)   bands (ev):

   -58.9767 -58.9767 -33.2725 -33.2717 -33.1358 -33.1357 -33.1345 -33.1345
   -13.9310 -13.6736 -11.2403 -10.6356  -5.6452  -4.6251  -2.9643  -2.9559
    -2.9383  -2.9300  -1.0579  -1.0569  -1.0512  -1.0500   0.1544   1.7222
     2.6153   3.9843

[...]

          k =-0.0000-0.5909 0.0000 ( 11612 PWs)   bands (ev):

[...]

     highest occupied level (ev):     3.9843

[...]
     c_bands:  2 eigenvalues not converged
     c_bands:  5 eigenvalues not converged
     c_bands:  1 eigenvalues not converged
     c_bands:  1 eigenvalues not converged
     c_bands:  5 eigenvalues not converged
     c_bands:  2 eigenvalues not converged
     c_bands:  1 eigenvalues not converged
     c_bands:  2 eigenvalues not converged
     c_bands:  5 eigenvalues not converged
     c_bands:  4 eigenvalues not converged
     c_bands:  1 eigenvalues not converged
     c_bands:  1 eigenvalues not converged
     c_bands:  4 eigenvalues not converged
     c_bands:  5 eigenvalues not converged
     c_bands:  2 eigenvalues not converged
     c_bands:  1 eigenvalues not converged
     c_bands:  4 eigenvalues not converged
     c_bands:  4 eigenvalues not converged
     c_bands:  3 eigenvalues not converged
     c_bands:  2 eigenvalues not converged
     c_bands:  2 eigenvalues not converged
     c_bands:  3 eigenvalues not converged
     c_bands:  4 eigenvalues not converged
     c_bands:  4 eigenvalues not converged
     c_bands:  2 eigenvalues not converged
     c_bands:  2 eigenvalues not converged
     c_bands:  2 eigenvalues not converged
     c_bands:  5 eigenvalues not converged
     c_bands:  1 eigenvalues not converged
     c_bands:  2 eigenvalues not converged
     c_bands:  2 eigenvalues not converged
     c_bands:  1 eigenvalues not converged
     c_bands:  5 eigenvalues not converged
     c_bands:  2 eigenvalues not converged
     c_bands:  5 eigenvalues not converged
     c_bands:  1 eigenvalues not converged
     c_bands:  1 eigenvalues not converged
     c_bands:  2 eigenvalues not converged
     c_bands:  2 eigenvalues not converged
     c_bands:  1 eigenvalues not converged
     c_bands:  1 eigenvalues not converged
     c_bands:  5 eigenvalues not converged
     c_bands:  4 eigenvalues not converged
     c_bands:  4 eigenvalues not converged
     c_bands:  5 eigenvalues not converged
     c_bands:  1 eigenvalues not converged
     c_bands:  1 eigenvalues not converged
     c_bands:  1 eigenvalues not converged
     c_bands:  3 eigenvalues not converged
     c_bands:  1 eigenvalues not converged
     c_bands:  1 eigenvalues not converged
     c_bands:  1 eigenvalues not converged
     ethr =  1.00E-06,  avg # of iterations = 23.6

[...]

     number of scf cycles    =  16
     number of bfgs steps    =  15

     enthalpy           old  =    -979.5126039886 Ry
     enthalpy           new  =    -979.5126509202 Ry

     CASE: enthalpy          _new < enthalpy          _old

     new trust radius        =       0.0565285868 bohr
     new conv_thr            =            1.0E-14 Ry

     new unit-cell volume =   1481.27481 a.u.^3 (   219.50228 Ang^3 )
     density =      2.42187 g/cm^3

[...]

ATOMIC_POSITIONS (crystal)
Mo            0.0000000000        0.0000000000        0.1230624654    0   0   1
S             0.6666551894        0.3332943961        0.1837691928
S             0.6666528920        0.3332865774        0.0623613201
Mo            0.0000000000        0.0000000000        0.3769375346    0   0   1
S            -0.6666528912       -0.3332865745        0.4376386799
S            -0.6666551902       -0.3332943990        0.3162308072

     Writing output data file /scratch/as3359/MoS2_loop/Ta.save/
     NEW-OLD atomic charge density approx. for the potential

     negative rho (up, down):  3.513E-04 0.000E+00
     extrapolated charge   51.96055, renormalised to   52.00000

[...]

     Energy error            =      2.4E-05 Ry
     Gradient error          =      4.5E-04 Ry/Bohr
     Cell gradient error     =      3.6E-01 kbar

     bfgs converged in  17 scf cycles and  16 bfgs steps
     (criteria: energy <  1.0E-04 Ry, force <  1.0E-03Ry/Bohr, cell <  5.0E-01kbar)

     End of BFGS Geometry Optimization

     Final enthalpy           =    -979.5126753191 Ry

     File /scratch/as3359/MoS2_loop/Ta.bfgs deleted, as requested
Begin final coordinates
     new unit-cell volume =   1481.27481 a.u.^3 (   219.50228 Ang^3 )
     density =      2.42187 g/cm^3

CELL_PARAMETERS (alat=  6.07200000)
   0.977325997  -0.000176330   0.000000000
  -0.488539747   0.846361973   0.000000000
   0.000000000   0.000000000   8.000000000

ATOMIC_POSITIONS (crystal)
Mo            0.0000000000        0.0000000000        0.1230624654    0   0   1
S             0.6666551894        0.3332943961        0.1837691928
S             0.6666528920        0.3332865774        0.0623613201
Mo            0.0000000000        0.0000000000        0.3769375346    0   0   1
S            -0.6666528912       -0.3332865745        0.4376386799
S            -0.6666551902       -0.3332943990        0.3162308072
End final coordinates

     Writing output data file /scratch/as3359/MoS2_loop/Ta.save/

     Final scf calculation at the relaxed structure.
     The G-vectors are recalculated for the final unit cell
     Results may differ from those at the preceding step.

     Using Slab Decomposition

     bravais-lattice index     =            0
     lattice parameter (alat)  =       6.0720  a.u.
     unit-cell volume          =    1481.2748 (a.u.)^3
     number of atoms/cell      =            6
     number of atomic types    =            2
     number of electrons       =        52.00
     number of Kohn-Sham states=           26
     kinetic-energy cutoff     =      60.0000  Ry
     charge density cutoff     =     300.0000  Ry
     scf convergence threshold =      1.0E-14
     mixing beta               =       0.3000
     number of iterations used =            8  plain     mixing
     press convergence thresh. =      5.0E-01
     Exchange-correlation= SLA  PW   PSX  PSC
                           (   1   4  10   8   0   0   0)

     celldm(1)=   6.072000  celldm(2)=   0.000000  celldm(3)=   0.000000
     celldm(4)=   0.000000  celldm(5)=   0.000000  celldm(6)=   0.000000

     crystal axes: (cart. coord. in units of alat)
               a(1) = (   0.977326  -0.000176   0.000000 )
               a(2) = (  -0.488540   0.846362   0.000000 )
               a(3) = (   0.000000   0.000000   8.000000 )

     reciprocal axes: (cart. coord. in units 2 pi/alat)
               b(1) = (  1.023307  0.590676  0.000000 )
               b(2) = (  0.000213  1.181651  0.000000 )
               b(3) = (  0.000000  0.000000  0.125000 )

     PseudoPot. # 1 for Mo read from file:
     /shared/home/as3359/pseudo/Mo.pbesol-spn-kjpaw_psl.1.0.0.UPF
     MD5 check sum: de57925cfc675213e43241dcc441eda8
     Pseudo is Projector augmented-wave + core cor, Zval = 14.0
     Generated using &quot;atomic&quot; code by A. Dal Corso  v.6.3
     Shape of augmentation charge: PSQ
     Using radial grid of 1229 points,  6 beta functions with:
                l(1) =   0
                l(2) =   0
                l(3) =   1
                l(4) =   1
                l(5) =   2
                l(6) =   2
     Q(r) pseudized with 0 coefficients

     PseudoPot. # 2 for S  read from file:
     /shared/home/as3359/pseudo/S.pbesol-nl-kjpaw_psl.1.0.0.UPF
     MD5 check sum: bf3db50ec3f960682bbc396f1aadd1dd
     Pseudo is Projector augmented-wave + core cor, Zval =  6.0
     Generated using &quot;atomic&quot; code by A. Dal Corso  v.6.3
     Shape of augmentation charge: PSQ
     Using radial grid of 1151 points,  4 beta functions with:
                l(1) =   0
                l(2) =   0
                l(3) =   1
                l(4) =   1
     Q(r) pseudized with 0 coefficients

     atomic species   valence    mass     pseudopotential
        Mo            14.00    95.94000     Mo( 1.00)
        S              6.00    32.06500     S ( 1.00)

      2 Sym. Ops., with inversion, found ( 1 have fractional translation)

   Cartesian axes

     site n.     atom                  positions (alat units)
         1           Mo  tau(   1) = (   0.0000000   0.0000000   0.9844997  )
         2           S   tau(   2) = (   0.4887119   0.2819702   1.4701535  )
         3           S   tau(   3) = (   0.4887135   0.2819635   0.4988906  )
         4           Mo  tau(   4) = (   0.0000000   0.0000000   3.0155003  )
         5           S   tau(   5) = (  -0.4887135  -0.2819635   3.5011094  )
         6           S   tau(   6) = (  -0.4887119  -0.2819702   2.5298465  )

     number of k points=    74
                       cart. coord. in units 2pi/alat
        k(    1) = (   0.0000000   0.0000000   0.0000000), wk =   0.0138889
        k(    2) = (   0.0000178   0.0984709   0.0000000), wk =   0.0277778
        k(    3) = (   0.0000355   0.1969418   0.0000000), wk =   0.0277778
        k(    4) = (   0.0000533   0.2954127   0.0000000), wk =   0.0277778
        k(    5) = (   0.0000711   0.3938835   0.0000000), wk =   0.0277778
        k(    6) = (   0.0000888   0.4923544   0.0000000), wk =   0.0277778
        k(    7) = (  -0.0001066  -0.5908253   0.0000000), wk =   0.0138889
        k(    8) = (   0.0852756   0.0492230   0.0000000), wk =   0.0277778
        k(    9) = (   0.0852933   0.1476939   0.0000000), wk =   0.0277778
        k(   10) = (   0.0853111   0.2461648   0.0000000), wk =   0.0277778
        k(   11) = (   0.0853288   0.3446357   0.0000000), wk =   0.0277778
        k(   12) = (   0.0853466   0.4431066   0.0000000), wk =   0.0277778
        k(   13) = (   0.0853644   0.5415775   0.0000000), wk =   0.0277778
        k(   14) = (   0.0851690  -0.5416023   0.0000000), wk =   0.0277778
        k(   15) = (   0.0851867  -0.4431314   0.0000000), wk =   0.0277778
        k(   16) = (   0.0852045  -0.3446605   0.0000000), wk =   0.0277778
        k(   17) = (   0.0852223  -0.2461896   0.0000000), wk =   0.0277778
        k(   18) = (   0.0852400  -0.1477187   0.0000000), wk =   0.0277778
        k(   19) = (   0.0852578  -0.0492479   0.0000000), wk =   0.0277778
        k(   20) = (   0.1705511   0.0984460   0.0000000), wk =   0.0277778
        k(   21) = (   0.1705689   0.1969169   0.0000000), wk =   0.0277778
        k(   22) = (   0.1705866   0.2953878   0.0000000), wk =   0.0277778
        k(   23) = (   0.1706044   0.3938587   0.0000000), wk =   0.0277778
        k(   24) = (   0.1706222   0.4923296   0.0000000), wk =   0.0277778
        k(   25) = (   0.1706399   0.5908005   0.0000000), wk =   0.0277778
        k(   26) = (   0.1704445  -0.4923793   0.0000000), wk =   0.0277778
        k(   27) = (   0.1704623  -0.3939084   0.0000000), wk =   0.0277778
        k(   28) = (   0.1704800  -0.2954375   0.0000000), wk =   0.0277778
        k(   29) = (   0.1704978  -0.1969666   0.0000000), wk =   0.0277778
        k(   30) = (   0.1705156  -0.0984957   0.0000000), wk =   0.0277778
        k(   31) = (   0.1705333  -0.0000248   0.0000000), wk =   0.0277778
        k(   32) = (   0.2558267   0.1476691   0.0000000), wk =   0.0277778
        k(   33) = (   0.2558444   0.2461400   0.0000000), wk =   0.0277778
        k(   34) = (   0.2558622   0.3446108   0.0000000), wk =   0.0277778
        k(   35) = (   0.2558800   0.4430817   0.0000000), wk =   0.0277778
        k(   36) = (   0.2558977   0.5415526   0.0000000), wk =   0.0277778
        k(   37) = (   0.2559155   0.6400235   0.0000000), wk =   0.0277778
        k(   38) = (   0.2557201  -0.4431562   0.0000000), wk =   0.0277778
        k(   39) = (   0.2557378  -0.3446854   0.0000000), wk =   0.0277778
        k(   40) = (   0.2557556  -0.2462145   0.0000000), wk =   0.0277778
        k(   41) = (   0.2557734  -0.1477436   0.0000000), wk =   0.0277778
        k(   42) = (   0.2557911  -0.0492727   0.0000000), wk =   0.0277778
        k(   43) = (   0.2558089   0.0491982   0.0000000), wk =   0.0277778
        k(   44) = (   0.3411022   0.1968921   0.0000000), wk =   0.0277778
        k(   45) = (   0.3411200   0.2953630   0.0000000), wk =   0.0277778
        k(   46) = (   0.3411377   0.3938339   0.0000000), wk =   0.0277778
        k(   47) = (   0.3411555   0.4923048   0.0000000), wk =   0.0277778
        k(   48) = (   0.3411733   0.5907756   0.0000000), wk =   0.0277778
        k(   49) = (   0.3411910   0.6892465   0.0000000), wk =   0.0277778
        k(   50) = (   0.3409956  -0.3939332   0.0000000), wk =   0.0277778
        k(   51) = (   0.3410134  -0.2954623   0.0000000), wk =   0.0277778
        k(   52) = (   0.3410311  -0.1969914   0.0000000), wk =   0.0277778
        k(   53) = (   0.3410489  -0.0985206   0.0000000), wk =   0.0277778
        k(   54) = (   0.3410667  -0.0000497   0.0000000), wk =   0.0277778
        k(   55) = (   0.3410844   0.0984212   0.0000000), wk =   0.0277778
        k(   56) = (   0.4263778   0.2461151   0.0000000), wk =   0.0277778
        k(   57) = (   0.4263955   0.3445860   0.0000000), wk =   0.0277778
        k(   58) = (   0.4264133   0.4430569   0.0000000), wk =   0.0277778
        k(   59) = (   0.4264311   0.5415278   0.0000000), wk =   0.0277778
        k(   60) = (   0.4264488   0.6399987   0.0000000), wk =   0.0277778
        k(   61) = (   0.4264666   0.7384695   0.0000000), wk =   0.0277778
        k(   62) = (   0.4262712  -0.3447102   0.0000000), wk =   0.0277778
        k(   63) = (   0.4262889  -0.2462393   0.0000000), wk =   0.0277778
        k(   64) = (   0.4263067  -0.1477684   0.0000000), wk =   0.0277778
        k(   65) = (   0.4263245  -0.0492975   0.0000000), wk =   0.0277778
        k(   66) = (   0.4263422   0.0491734   0.0000000), wk =   0.0277778
        k(   67) = (   0.4263600   0.1476442   0.0000000), wk =   0.0277778
        k(   68) = (  -0.5116533  -0.2953381   0.0000000), wk =   0.0138889
        k(   69) = (  -0.5116355  -0.1968673   0.0000000), wk =   0.0277778
        k(   70) = (  -0.5116178  -0.0983964   0.0000000), wk =   0.0277778
        k(   71) = (  -0.5116000   0.0000745   0.0000000), wk =   0.0277778
        k(   72) = (  -0.5115822   0.0985454   0.0000000), wk =   0.0277778
        k(   73) = (  -0.5115645   0.1970163   0.0000000), wk =   0.0277778
        k(   74) = (  -0.5117599  -0.8861635   0.0000000), wk =   0.0138889

     Initial potential from superposition of free atoms

     starting charge   51.99828, renormalised to   52.00000

     negative rho (up, down):  2.821E-04 0.000E+00
     Starting wfcs are   36 randomized atomic wfcs
     Checking if some PAW data can be deallocated...

     Self-consistent Calculation

[...]

     total energy              =    -979.51269202 Ry
     estimated scf accuracy    <          2.1E-13 Ry

     iteration # 44     ecut=    60.00 Ry     beta= 0.30
     Davidson diagonalization with overlap
     ethr =  1.00E-13,  avg # of iterations =  1.0

[...]

     End of self-consistent calculation

[...]

          k = 0.4264 0.1476 0.0000 ( 11618 PWs)   bands (ev):

[...]

          k =-0.5118-0.8862 0.0000 ( 11612 PWs)   bands (ev):

   -58.7348 -58.7348 -33.1553 -33.1553 -32.9006 -32.9006 -32.8223 -32.8223
   -10.2705 -10.2485 -10.1393 -10.1115  -4.0366  -4.0078  -3.0852  -2.9603
    -2.2449  -2.2290  -1.2608  -1.2444  -0.1979   0.1647   1.0409   1.0856
     1.2091   1.3465

     highest occupied level (ev):     2.1886

!    total energy              =    -979.51269202 Ry

     total all-electron energy =    -19376.428383 Ry
     estimated scf accuracy    <          6.8E-15 Ry

     The total energy is the sum of the following terms:
     one-electron contribution =   -2744.82551468 Ry
     hartree contribution      =    1383.04738239 Ry
     xc contribution           =     -59.05239522 Ry
     ewald contribution        =    1067.10015483 Ry
     one-center paw contrib.   =    -625.78231934 Ry

     convergence has been achieved in  44 iterations

     negative rho (up, down):  3.767E-04 0.000E+00

     Forces acting on atoms (cartesian axes, Ry/au):

     atom    1 type  1   force =     0.00001339   -0.00005889   -0.00002447
     atom    2 type  2   force =    -0.00000579    0.00002573   -0.00045192
     atom    3 type  2   force =    -0.00000771    0.00003360    0.00044178
     atom    4 type  1   force =    -0.00001339    0.00005889    0.00002447
     atom    5 type  2   force =     0.00000771   -0.00003360   -0.00044178
     atom    6 type  2   force =     0.00000579   -0.00002573    0.00045192

     Total force =     0.000897     Total SCF correction =     0.000000

     Computing stress (Cartesian axis) and pressure

     negative rho (up, down):  3.767E-04 0.000E+00
          total   stress  (Ry/bohr**3)                   (kbar)     P=       -0.85
  -0.00000237   0.00000009   0.00000001           -0.35        0.01        0.00
   0.00000009  -0.00000169  -0.00000004            0.01       -0.25       -0.01
   0.00000001  -0.00000004  -0.00001332            0.00       -0.01       -1.96

     Writing output data file /scratch/as3359/MoS2_loop/Ta.save/

     General routines

     Parallel routines

   This run was terminated on:  19:57:34   8Apr2022

   JOB DONE.