     Program PWSCF v.6.8 starts on  8Apr2022 at 20: 4:42

     R & G space division:  proc/nbgrp/npool/nimage =       2

     Waiting for input...
     Reading input from standard input

     Current dimensions of program PWSCF are:
     Max number of different atomic species (ntypx) = 10
     Max number of k-points (npk) =  40000
     Max angular momentum in pseudopotentials (lmaxx) =  4
     file Mo.pbesol-spn-kjpaw_psl.1.0.0.UPF: wavefunction(s)  4S 4D renormalized
     file S.pbesol-nl-kjpaw_psl.1.0.0.UPF: wavefunction(s)  3S renormalized
     Message from routine setup:
     using ibrav=0 with symmetry is DISCOURAGED, use correct ibrav instead

     Subspace diagonalization in iterative solution of the eigenvalue problem:
     a serial algorithm will be used

     Using Slab Decomposition

     bravais-lattice index     =            0
     lattice parameter (alat)  =       6.0720  a.u.
     unit-cell volume          =    1481.2748 (a.u.)^3
     number of atoms/cell      =            6
     number of atomic types    =            2
     number of electrons       =        52.00
     number of Kohn-Sham states=           26
     kinetic-energy cutoff     =      60.0000  Ry
     charge density cutoff     =     300.0000  Ry
     scf convergence threshold =      1.0E-12
     mixing beta               =       0.7000
     number of iterations used =            8  plain     mixing
     Exchange-correlation= SLA  PW   PSX  PSC
                           (   1   4  10   8   0   0   0)

     celldm(1)=   6.072000  celldm(2)=   0.000000  celldm(3)=   0.000000
     celldm(4)=   0.000000  celldm(5)=   0.000000  celldm(6)=   0.000000

     crystal axes: (cart. coord. in units of alat)
               a(1) = (   0.977326  -0.000176   0.000000 )
               a(2) = (  -0.488540   0.846362   0.000000 )
               a(3) = (   0.000000   0.000000   8.000000 )

     reciprocal axes: (cart. coord. in units 2 pi/alat)
               b(1) = (  1.023307  0.590676  0.000000 )
               b(2) = (  0.000213  1.181651  0.000000 )
               b(3) = (  0.000000  0.000000  0.125000 )

     PseudoPot. # 1 for Mo read from file:
     /shared/home/as3359/pseudo/Mo.pbesol-spn-kjpaw_psl.1.0.0.UPF
     MD5 check sum: de57925cfc675213e43241dcc441eda8
     Pseudo is Projector augmented-wave + core cor, Zval = 14.0
     Generated using &quot;atomic&quot; code by A. Dal Corso  v.6.3
     Shape of augmentation charge: PSQ
     Using radial grid of 1229 points,  6 beta functions with:
                l(1) =   0
                l(2) =   0
                l(3) =   1
                l(4) =   1
                l(5) =   2
                l(6) =   2
     Q(r) pseudized with 0 coefficients

     PseudoPot. # 2 for S  read from file:
     /shared/home/as3359/pseudo/S.pbesol-nl-kjpaw_psl.1.0.0.UPF
     MD5 check sum: bf3db50ec3f960682bbc396f1aadd1dd
     Pseudo is Projector augmented-wave + core cor, Zval =  6.0
     Generated using &quot;atomic&quot; code by A. Dal Corso  v.6.3
     Shape of augmentation charge: PSQ
     Using radial grid of 1151 points,  4 beta functions with:
                l(1) =   0
                l(2) =   0
                l(3) =   1
                l(4) =   1
     Q(r) pseudized with 0 coefficients

     atomic species   valence    mass     pseudopotential
        Mo            14.00    95.94000     Mo( 1.00)
        S              6.00    32.06500     S ( 1.00)

      2 Sym. Ops., with inversion, found ( 1 have fractional translation)

   Cartesian axes

     site n.     atom                  positions (alat units)
         1           Mo  tau(   1) = (   0.0000000   0.0000000   0.9844997  )
         2           S   tau(   2) = (   0.4887119   0.2819702   1.4701535  )
         3           S   tau(   3) = (   0.4887135   0.2819635   0.4988906  )
         4           Mo  tau(   4) = (   0.0000000   0.0000000   3.0155003  )
         5           S   tau(   5) = (  -0.4887135  -0.2819635   3.5011094  )
         6           S   tau(   6) = (  -0.4887119  -0.2819702   2.5298465  )

     number of k points=    74
                       cart. coord. in units 2pi/alat
        k(    1) = (   0.0000000   0.0000000   0.0000000), wk =   0.0138889
        k(    2) = (   0.0000178   0.0984709   0.0000000), wk =   0.0277778
        k(    3) = (   0.0000355   0.1969418   0.0000000), wk =   0.0277778
        k(    4) = (   0.0000533   0.2954127   0.0000000), wk =   0.0277778
        k(    5) = (   0.0000711   0.3938835   0.0000000), wk =   0.0277778
        k(    6) = (   0.0000888   0.4923544   0.0000000), wk =   0.0277778
        k(    7) = (  -0.0001066  -0.5908253   0.0000000), wk =   0.0138889
        k(    8) = (   0.0852756   0.0492230   0.0000000), wk =   0.0277778
        k(    9) = (   0.0852933   0.1476939   0.0000000), wk =   0.0277778
        k(   10) = (   0.0853111   0.2461648   0.0000000), wk =   0.0277778
        k(   11) = (   0.0853288   0.3446357   0.0000000), wk =   0.0277778
        k(   12) = (   0.0853466   0.4431066   0.0000000), wk =   0.0277778
        k(   13) = (   0.0853644   0.5415775   0.0000000), wk =   0.0277778
        k(   14) = (   0.0851690  -0.5416023   0.0000000), wk =   0.0277778
        k(   15) = (   0.0851867  -0.4431314   0.0000000), wk =   0.0277778
        k(   16) = (   0.0852045  -0.3446605   0.0000000), wk =   0.0277778
        k(   17) = (   0.0852223  -0.2461896   0.0000000), wk =   0.0277778
        k(   18) = (   0.0852400  -0.1477187   0.0000000), wk =   0.0277778
        k(   19) = (   0.0852578  -0.0492479   0.0000000), wk =   0.0277778
        k(   20) = (   0.1705511   0.0984460   0.0000000), wk =   0.0277778
        k(   21) = (   0.1705689   0.1969169   0.0000000), wk =   0.0277778
        k(   22) = (   0.1705866   0.2953878   0.0000000), wk =   0.0277778
        k(   23) = (   0.1706044   0.3938587   0.0000000), wk =   0.0277778
        k(   24) = (   0.1706222   0.4923296   0.0000000), wk =   0.0277778
        k(   25) = (   0.1706399   0.5908005   0.0000000), wk =   0.0277778
        k(   26) = (   0.1704445  -0.4923793   0.0000000), wk =   0.0277778
        k(   27) = (   0.1704623  -0.3939084   0.0000000), wk =   0.0277778
        k(   28) = (   0.1704800  -0.2954375   0.0000000), wk =   0.0277778
        k(   29) = (   0.1704978  -0.1969666   0.0000000), wk =   0.0277778
        k(   30) = (   0.1705156  -0.0984957   0.0000000), wk =   0.0277778
        k(   31) = (   0.1705333  -0.0000248   0.0000000), wk =   0.0277778
        k(   32) = (   0.2558267   0.1476691   0.0000000), wk =   0.0277778
        k(   33) = (   0.2558444   0.2461400   0.0000000), wk =   0.0277778
        k(   34) = (   0.2558622   0.3446108   0.0000000), wk =   0.0277778
        k(   35) = (   0.2558800   0.4430817   0.0000000), wk =   0.0277778
        k(   36) = (   0.2558977   0.5415526   0.0000000), wk =   0.0277778
        k(   37) = (   0.2559155   0.6400235   0.0000000), wk =   0.0277778
        k(   38) = (   0.2557201  -0.4431562   0.0000000), wk =   0.0277778
        k(   39) = (   0.2557378  -0.3446854   0.0000000), wk =   0.0277778
        k(   40) = (   0.2557556  -0.2462145   0.0000000), wk =   0.0277778
        k(   41) = (   0.2557734  -0.1477436   0.0000000), wk =   0.0277778
        k(   42) = (   0.2557911  -0.0492727   0.0000000), wk =   0.0277778
        k(   43) = (   0.2558089   0.0491982   0.0000000), wk =   0.0277778
        k(   44) = (   0.3411022   0.1968921   0.0000000), wk =   0.0277778
        k(   45) = (   0.3411200   0.2953630   0.0000000), wk =   0.0277778
        k(   46) = (   0.3411377   0.3938339   0.0000000), wk =   0.0277778
        k(   47) = (   0.3411555   0.4923048   0.0000000), wk =   0.0277778
        k(   48) = (   0.3411733   0.5907756   0.0000000), wk =   0.0277778
        k(   49) = (   0.3411910   0.6892465   0.0000000), wk =   0.0277778
        k(   50) = (   0.3409956  -0.3939332   0.0000000), wk =   0.0277778
        k(   51) = (   0.3410134  -0.2954623   0.0000000), wk =   0.0277778
        k(   52) = (   0.3410311  -0.1969914   0.0000000), wk =   0.0277778
        k(   53) = (   0.3410489  -0.0985206   0.0000000), wk =   0.0277778
        k(   54) = (   0.3410667  -0.0000497   0.0000000), wk =   0.0277778
        k(   55) = (   0.3410844   0.0984212   0.0000000), wk =   0.0277778
        k(   56) = (   0.4263778   0.2461151   0.0000000), wk =   0.0277778
        k(   57) = (   0.4263955   0.3445860   0.0000000), wk =   0.0277778
        k(   58) = (   0.4264133   0.4430569   0.0000000), wk =   0.0277778
        k(   59) = (   0.4264311   0.5415278   0.0000000), wk =   0.0277778
        k(   60) = (   0.4264488   0.6399987   0.0000000), wk =   0.0277778
        k(   61) = (   0.4264666   0.7384695   0.0000000), wk =   0.0277778
        k(   62) = (   0.4262712  -0.3447102   0.0000000), wk =   0.0277778
        k(   63) = (   0.4262889  -0.2462393   0.0000000), wk =   0.0277778
        k(   64) = (   0.4263067  -0.1477684   0.0000000), wk =   0.0277778
        k(   65) = (   0.4263245  -0.0492975   0.0000000), wk =   0.0277778
        k(   66) = (   0.4263422   0.0491734   0.0000000), wk =   0.0277778
        k(   67) = (   0.4263600   0.1476442   0.0000000), wk =   0.0277778
        k(   68) = (  -0.5116533  -0.2953381   0.0000000), wk =   0.0138889
        k(   69) = (  -0.5116355  -0.1968673   0.0000000), wk =   0.0277778
        k(   70) = (  -0.5116178  -0.0983964   0.0000000), wk =   0.0277778
        k(   71) = (  -0.5116000   0.0000745   0.0000000), wk =   0.0277778
        k(   72) = (  -0.5115822   0.0985454   0.0000000), wk =   0.0277778
        k(   73) = (  -0.5115645   0.1970163   0.0000000), wk =   0.0277778
        k(   74) = (  -0.5117599  -0.8861635   0.0000000), wk =   0.0138889

     Initial potential from superposition of free atoms

     starting charge   51.99828, renormalised to   52.00000

     negative rho (up, down):  2.821E-04 0.000E+00
     Starting wfcs are   36 randomized atomic wfcs
     Checking if some PAW data can be deallocated...

     Self-consistent Calculation

     iteration #  1     ecut=    60.00 Ry     beta= 0.70
     Davidson diagonalization with overlap
     ethr =  1.00E-02,  avg # of iterations =  2.0

     Threshold (ethr) on eigenvalues was too large:
     Diagonalizing with lowered threshold

     Davidson diagonalization with overlap
     ethr =  3.35E-04,  avg # of iterations =  3.9

     negative rho (up, down):  3.411E-04 0.000E+00

     total energy              =    -979.39070552 Ry
     estimated scf accuracy    <       0.27618978 Ry

[...]

     total energy              =    -979.51269202 Ry
     estimated scf accuracy    <          3.9E-10 Ry

     iteration # 21     ecut=    60.00 Ry     beta= 0.70
     Davidson diagonalization with overlap
     ethr =  4.10E-13,  avg # of iterations =  4.5

[...]

     End of self-consistent calculation

          k = 0.0000 0.0000 0.0000 ( 11729 PWs)   bands (ev):

   -58.7805 -58.7804 -32.9895 -32.9895 -32.7229 -32.7228 -32.7226 -32.7226
   -12.3215 -12.2562 -10.9924 -10.8812  -4.0195  -3.7051  -0.6693  -0.6679
    -0.6659  -0.6644  -0.3296   0.4474   0.4898   0.4914   0.4920   0.4936
     1.6759   2.1886

[...]

          k =-0.0001-0.5908 0.0000 ( 11612 PWs)   bands (ev):

[...]

          k = 0.4264 0.1476 0.0000 ( 11618 PWs)   bands (ev):

[...]

          k =-0.5118-0.8862 0.0000 ( 11612 PWs)   bands (ev):

   -58.7348 -58.7348 -33.1553 -33.1553 -32.9006 -32.9006 -32.8223 -32.8223
   -10.2705 -10.2485 -10.1393 -10.1115  -4.0366  -4.0078  -3.0852  -2.9603
    -2.2449  -2.2290  -1.2608  -1.2444  -0.1979   0.1647   1.0409   1.0856
     1.2091   1.3465

     highest occupied level (ev):     2.1886

!    total energy              =    -979.51269202 Ry

     total all-electron energy =    -19376.428383 Ry
     estimated scf accuracy    <          1.2E-13 Ry

     The total energy is the sum of the following terms:
     one-electron contribution =   -2744.82555397 Ry
     hartree contribution      =    1383.04741387 Ry
     xc contribution           =     -59.05239623 Ry
     ewald contribution        =    1067.10016372 Ry
     one-center paw contrib.   =    -625.78231940 Ry

     convergence has been achieved in  21 iterations

     negative rho (up, down):  3.767E-04 0.000E+00

     Forces acting on atoms (cartesian axes, Ry/au):

     atom    1 type  1   force =     0.00001345   -0.00005889   -0.00002414
     atom    2 type  2   force =    -0.00000580    0.00002567   -0.00045230
     atom    3 type  2   force =    -0.00000775    0.00003362    0.00044211
     atom    4 type  1   force =    -0.00001345    0.00005889    0.00002414
     atom    5 type  2   force =     0.00000775   -0.00003362   -0.00044211
     atom    6 type  2   force =     0.00000580   -0.00002567    0.00045230

     Total force =     0.000901     Total SCF correction =     0.000001

     Computing stress (Cartesian axis) and pressure

     negative rho (up, down):  3.767E-04 0.000E+00
          total   stress  (Ry/bohr**3)                   (kbar)     P=       -0.85
  -0.00000237   0.00000009   0.00000001           -0.35        0.01        0.00
   0.00000009  -0.00000169  -0.00000004            0.01       -0.25       -0.01
   0.00000001  -0.00000004  -0.00001332            0.00       -0.01       -1.96

     Writing output data file /scratch/as3359/MoS2_loop/Ta.save/

     General routines

     Parallel routines

   This run was terminated on:  20: 8:15   8Apr2022

   JOB DONE.