     Program PWSCF v.6.8 starts on  7Apr2022 at 15:33:42

     R & G space division:  proc/nbgrp/npool/nimage =       2

     Waiting for input...
     Reading input from standard input

     Current dimensions of program PWSCF are:
     Max number of different atomic species (ntypx) = 10
     Max number of k-points (npk) =  40000
     Max angular momentum in pseudopotentials (lmaxx) =  4
     file Ta.pbesol-spfn-rrkjus_psl.1.0.0.UPF: wavefunction(s)  5S 5P renormalized

     Subspace diagonalization in iterative solution of the eigenvalue problem:
     a serial algorithm will be used

     Using Slab Decomposition

     bravais-lattice index     =            0
     lattice parameter (alat)  =       5.5500  a.u.
     unit-cell volume          =    1608.6989 (a.u.)^3
     number of atoms/cell      =            5
     number of atomic types    =            3
     number of electrons       =        70.00
     number of Kohn-Sham states=           35
     kinetic-energy cutoff     =      70.0000  Ry
     charge density cutoff     =     400.0000  Ry
     scf convergence threshold =      1.0E-12
     mixing beta               =       0.7000
     number of iterations used =            8  plain     mixing
     Exchange-correlation= PBESOL
                           (   1   4  10   8   0   0   0)

     celldm(1)=   5.550000  celldm(2)=   0.000000  celldm(3)=   0.000000
     celldm(4)=   0.000000  celldm(5)=   0.000000  celldm(6)=   0.000000

     crystal axes: (cart. coord. in units of alat)
               a(1) = (   1.043500   0.000814   0.000000 )
               a(2) = (  -0.521746   0.901379   0.000000 )
               a(3) = (   0.000000   0.000000  10.000000 )

     reciprocal axes: (cart. coord. in units 2 pi/alat)
               b(1) = (  0.957881  0.554451  0.000000 )
               b(2) = ( -0.000865  1.108910  0.000000 )
               b(3) = (  0.000000  0.000000  0.100000 )

     PseudoPot. # 1 for Ta read from file:
     /shared/home/as3359/pseudo/Ta.pbesol-spfn-rrkjus_psl.1.0.0.UPF
     MD5 check sum: f099565ffaca9b150a52e9412a28e20b
     Pseudo is Ultrasoft + core correction, Zval = 27.0
     Generated using &quot;atomic&quot; code by A. Dal Corso  v.6.3
     Using radial grid of 1273 points,  8 beta functions with:
                l(1) =   0
                l(2) =   0
                l(3) =   1
                l(4) =   1
                l(5) =   2
                l(6) =   2
                l(7) =   3
                l(8) =   3
     Q(r) pseudized with 0 coefficients

     PseudoPot. # 2 for C  read from file:
     /shared/home/as3359/pseudo/C.pbesol-n-rrkjus_psl.1.0.0.UPF
     MD5 check sum: 05995be603a8a7c99da3dc4413f31573
     Pseudo is Ultrasoft + core correction, Zval =  4.0
     Generated using &quot;atomic&quot; code by A. Dal Corso  v.6.3MaX
     Using radial grid of 1073 points,  4 beta functions with:
                l(1) =   0
                l(2) =   0
                l(3) =   1
                l(4) =   1
     Q(r) pseudized with 0 coefficients

     PseudoPot. # 3 for O  read from file:
     /shared/home/as3359/pseudo/O.pbesol-n-rrkjus_psl.1.0.0.UPF
     MD5 check sum: dd9bad2534826f832ffc9296591fc5de
     Pseudo is Ultrasoft + core correction, Zval =  6.0
     Generated using &quot;atomic&quot; code by A. Dal Corso  v.6.3MaX
     Using radial grid of 1095 points,  4 beta functions with:
                l(1) =   0
                l(2) =   0
                l(3) =   1
                l(4) =   1
     Q(r) pseudized with 0 coefficients

     atomic species   valence    mass     pseudopotential
        Ta            27.00   180.94788     Ta( 1.00)
        C              4.00    12.01070     C ( 1.00)
        O              6.00    15.99940     O ( 1.00)

     No symmetry found

   Cartesian axes

     site n.     atom                  positions (alat units)
         1           C   tau(   1) = (  -0.1377536   0.0179990   0.0193518  )
         2           Ta  tau(   2) = (   0.3841239   0.3191886  -0.4303721  )
         3           Ta  tau(   3) = (  -0.1376121   0.6197216   0.4272316  )
         4           O   tau(   4) = (   0.3845132   0.3204022   0.8049677  )
         5           O   tau(   5) = (  -0.1374316   0.0186104  -0.8211265  )

     number of k points=    74
                       cart. coord. in units 2pi/alat
        k(    1) = (   0.0000000   0.0000000   0.0000000), wk =   0.0138889
        k(    2) = (  -0.0000721   0.0924092   0.0000000), wk =   0.0277778
        k(    3) = (  -0.0001441   0.1848184   0.0000000), wk =   0.0277778
        k(    4) = (  -0.0002162   0.2772276   0.0000000), wk =   0.0277778
        k(    5) = (  -0.0002883   0.3696368   0.0000000), wk =   0.0277778
        k(    6) = (  -0.0003604   0.4620460   0.0000000), wk =   0.0277778
        k(    7) = (   0.0004324  -0.5544552   0.0000000), wk =   0.0138889
        k(    8) = (   0.0798234   0.0462042   0.0000000), wk =   0.0277778
        k(    9) = (   0.0797514   0.1386134   0.0000000), wk =   0.0277778
        k(   10) = (   0.0796793   0.2310226   0.0000000), wk =   0.0277778
        k(   11) = (   0.0796072   0.3234318   0.0000000), wk =   0.0277778
        k(   12) = (   0.0795352   0.4158410   0.0000000), wk =   0.0277778
        k(   13) = (   0.0794631   0.5082502   0.0000000), wk =   0.0277778
        k(   14) = (   0.0802559  -0.5082509   0.0000000), wk =   0.0277778
        k(   15) = (   0.0801838  -0.4158417   0.0000000), wk =   0.0277778
        k(   16) = (   0.0801117  -0.3234325   0.0000000), wk =   0.0277778
        k(   17) = (   0.0800397  -0.2310233   0.0000000), wk =   0.0277778
        k(   18) = (   0.0799676  -0.1386142   0.0000000), wk =   0.0277778
        k(   19) = (   0.0798955  -0.0462050   0.0000000), wk =   0.0277778
        k(   20) = (   0.1596469   0.0924085   0.0000000), wk =   0.0277778
        k(   21) = (   0.1595748   0.1848177   0.0000000), wk =   0.0277778
        k(   22) = (   0.1595027   0.2772269   0.0000000), wk =   0.0277778
        k(   23) = (   0.1594307   0.3696361   0.0000000), wk =   0.0277778
        k(   24) = (   0.1593586   0.4620453   0.0000000), wk =   0.0277778
        k(   25) = (   0.1592865   0.5544545   0.0000000), wk =   0.0277778
        k(   26) = (   0.1600793  -0.4620467   0.0000000), wk =   0.0277778
        k(   27) = (   0.1600073  -0.3696375   0.0000000), wk =   0.0277778
        k(   28) = (   0.1599352  -0.2772283   0.0000000), wk =   0.0277778
        k(   29) = (   0.1598631  -0.1848191   0.0000000), wk =   0.0277778
        k(   30) = (   0.1597910  -0.0924099   0.0000000), wk =   0.0277778
        k(   31) = (   0.1597190  -0.0000007   0.0000000), wk =   0.0277778
        k(   32) = (   0.2394703   0.1386127   0.0000000), wk =   0.0277778
        k(   33) = (   0.2393983   0.2310219   0.0000000), wk =   0.0277778
        k(   34) = (   0.2393262   0.3234311   0.0000000), wk =   0.0277778
        k(   35) = (   0.2392541   0.4158403   0.0000000), wk =   0.0277778
        k(   36) = (   0.2391821   0.5082495   0.0000000), wk =   0.0277778
        k(   37) = (   0.2391100   0.6006587   0.0000000), wk =   0.0277778
        k(   38) = (   0.2399028  -0.4158425   0.0000000), wk =   0.0277778
        k(   39) = (   0.2398307  -0.3234333   0.0000000), wk =   0.0277778
        k(   40) = (   0.2397586  -0.2310241   0.0000000), wk =   0.0277778
        k(   41) = (   0.2396866  -0.1386149   0.0000000), wk =   0.0277778
        k(   42) = (   0.2396145  -0.0462057   0.0000000), wk =   0.0277778
        k(   43) = (   0.2395424   0.0462035   0.0000000), wk =   0.0277778
        k(   44) = (   0.3192938   0.1848170   0.0000000), wk =   0.0277778
        k(   45) = (   0.3192217   0.2772262   0.0000000), wk =   0.0277778
        k(   46) = (   0.3191496   0.3696354   0.0000000), wk =   0.0277778
        k(   47) = (   0.3190776   0.4620446   0.0000000), wk =   0.0277778
        k(   48) = (   0.3190055   0.5544537   0.0000000), wk =   0.0277778
        k(   49) = (   0.3189334   0.6468629   0.0000000), wk =   0.0277778
        k(   50) = (   0.3197262  -0.3696382   0.0000000), wk =   0.0277778
        k(   51) = (   0.3196541  -0.2772290   0.0000000), wk =   0.0277778
        k(   52) = (   0.3195821  -0.1848198   0.0000000), wk =   0.0277778
        k(   53) = (   0.3195100  -0.0924106   0.0000000), wk =   0.0277778
        k(   54) = (   0.3194379  -0.0000014   0.0000000), wk =   0.0277778
        k(   55) = (   0.3193659   0.0924078   0.0000000), wk =   0.0277778
        k(   56) = (   0.3991172   0.2310212   0.0000000), wk =   0.0277778
        k(   57) = (   0.3990452   0.3234304   0.0000000), wk =   0.0277778
        k(   58) = (   0.3989731   0.4158396   0.0000000), wk =   0.0277778
        k(   59) = (   0.3989010   0.5082488   0.0000000), wk =   0.0277778
        k(   60) = (   0.3988289   0.6006580   0.0000000), wk =   0.0277778
        k(   61) = (   0.3987569   0.6930672   0.0000000), wk =   0.0277778
        k(   62) = (   0.3995497  -0.3234340   0.0000000), wk =   0.0277778
        k(   63) = (   0.3994776  -0.2310248   0.0000000), wk =   0.0277778
        k(   64) = (   0.3994055  -0.1386156   0.0000000), wk =   0.0277778
        k(   65) = (   0.3993334  -0.0462064   0.0000000), wk =   0.0277778
        k(   66) = (   0.3992614   0.0462028   0.0000000), wk =   0.0277778
        k(   67) = (   0.3991893   0.1386120   0.0000000), wk =   0.0277778
        k(   68) = (  -0.4789407  -0.2772254   0.0000000), wk =   0.0138889
        k(   69) = (  -0.4790128  -0.1848162   0.0000000), wk =   0.0277778
        k(   70) = (  -0.4790848  -0.0924071   0.0000000), wk =   0.0277778
        k(   71) = (  -0.4791569   0.0000021   0.0000000), wk =   0.0277778
        k(   72) = (  -0.4792290   0.0924113   0.0000000), wk =   0.0277778
        k(   73) = (  -0.4793010   0.1848205   0.0000000), wk =   0.0277778
        k(   74) = (  -0.4785082  -0.8316806   0.0000000), wk =   0.0138889

     Check: negative core charge=   -0.000001

     Initial potential from superposition of free atoms

     starting charge   69.99841, renormalised to   70.00000

     negative rho (up, down):  2.279E-04 0.000E+00
     Starting wfcs are   46 randomized atomic wfcs

     Self-consistent Calculation

     iteration #  1     ecut=    70.00 Ry     beta= 0.70
     Davidson diagonalization with overlap
     ethr =  1.00E-02,  avg # of iterations =  2.0

     negative rho (up, down):  7.728E-07 0.000E+00

     total energy              =   -1437.37729516 Ry
     estimated scf accuracy    <       1.65717174 Ry

[...]

     iteration #  3     ecut=    70.00 Ry     beta= 0.70
     Davidson diagonalization with overlap
     c_bands:  3 eigenvalues not converged
     c_bands:  1 eigenvalues not converged
     c_bands:  2 eigenvalues not converged
     c_bands:  1 eigenvalues not converged
     c_bands:  2 eigenvalues not converged
     c_bands:  2 eigenvalues not converged
     ethr =  2.37E-03,  avg # of iterations = 15.1

[...]

     iteration # 52     ecut=    70.00 Ry     beta= 0.70
     Davidson diagonalization with overlap
     c_bands:  1 eigenvalues not converged
     ethr =  1.76E-13,  avg # of iterations =  5.0

[...]

     total energy              =   -1438.35616893 Ry
     estimated scf accuracy    <          1.3E-12 Ry

     iteration # 54     ecut=    70.00 Ry     beta= 0.70
     Davidson diagonalization with overlap
     ethr =  1.00E-13,  avg # of iterations =  1.5

[...]

     End of self-consistent calculation

          k = 0.0000 0.0000 0.0000 ( 16005 PWs)   bands (ev):

   -69.7074 -68.9104 -36.4038 -35.9370 -35.9359 -35.5199 -35.1021 -35.0989
   -21.4261 -21.2871 -21.2780 -21.2772 -21.2578 -21.2553 -21.2327 -20.6428
   -20.5309 -20.5187 -20.5186 -20.5071 -20.5068 -20.4523 -20.0756 -19.1761
   -13.1461  -8.3426  -6.6565  -6.6324  -5.6361  -5.1196  -5.1021  -3.1303
    -3.1145  -2.7782  -0.2678

          k =-0.0001 0.0924 0.0000 ( 15997 PWs)   bands (ev):

[...]

          k = 0.3992 0.1386 0.0000 ( 15919 PWs)   bands (ev):

[...]

          k =-0.4785-0.8317 0.0000 ( 15918 PWs)   bands (ev):

   -69.6600 -68.8646 -36.7284 -36.2259 -36.1095 -35.8139 -35.4096 -35.2625
   -21.3497 -21.2810 -21.2792 -21.2644 -21.2586 -21.2564 -21.2521 -20.5822
   -20.5302 -20.5169 -20.5107 -20.4978 -20.4883 -20.4803 -19.6244 -18.7055
   -12.2110  -8.7203  -6.5185  -6.2682  -6.0732  -5.6129  -5.1458  -4.9686
    -3.3699  -3.0710  -1.7685

     highest occupied level (ev):    -0.2678

!    total energy              =   -1438.35616893 Ry
     estimated scf accuracy    <          4.4E-13 Ry

     The total energy is the sum of the following terms:
     one-electron contribution =  -14107.01860197 Ry
     hartree contribution      =    7084.40934829 Ry
     xc contribution           =    -153.69902183 Ry
     ewald contribution        =    5737.95210657 Ry

     convergence has been achieved in  54 iterations

     negative rho (up, down):  3.263E-04 0.000E+00

     Forces acting on atoms (cartesian axes, Ry/au):

     atom    1 type  2   force =     0.00001260   -0.00001356   -0.00001816
     atom    2 type  1   force =    -0.00001564    0.00000720   -0.00002306
     atom    3 type  1   force =    -0.00002300   -0.00016334    0.00000907
     atom    4 type  3   force =     0.00005552    0.00017157    0.00006786
     atom    5 type  3   force =    -0.00002949   -0.00000188   -0.00003571

     Total force =     0.000261     Total SCF correction =     0.000009

     Computing stress (Cartesian axis) and pressure

     negative rho (up, down):  3.263E-04 0.000E+00
          total   stress  (Ry/bohr**3)                   (kbar)     P=       -0.36
  -0.00000260  -0.00000078   0.00000023           -0.38       -0.12        0.03
  -0.00000078   0.00000198   0.00000023           -0.12        0.29        0.03
   0.00000023   0.00000023  -0.00000670            0.03        0.03       -0.99

     Writing output data file /scratch/as3359/Ta2CO2_loop/Ta.save/

     General routines

     Parallel routines

   This run was terminated on:  15:49:19   7Apr2022

   JOB DONE.