     Program PWSCF v.6.8 starts on  7Apr2022 at 13:59:19

     R & G space division:  proc/nbgrp/npool/nimage =       2

     Reading input from Ta2CO2.vcrelax.in

     Current dimensions of program PWSCF are:
     Max number of different atomic species (ntypx) = 10
     Max number of k-points (npk) =  40000
     Max angular momentum in pseudopotentials (lmaxx) =  4
     file Ta.pbesol-spfn-rrkjus_psl.1.0.0.UPF: wavefunction(s)  5S 5P renormalized

     Subspace diagonalization in iterative solution of the eigenvalue problem:
     a serial algorithm will be used

     Using Slab Decomposition

     bravais-lattice index     =            0
     lattice parameter (alat)  =       5.5500  a.u.
     unit-cell volume          =    1608.7888 (a.u.)^3
     number of atoms/cell      =            5
     number of atomic types    =            3
     number of electrons       =        70.00
     number of Kohn-Sham states=           35
     kinetic-energy cutoff     =      70.0000  Ry
     charge density cutoff     =     400.0000  Ry
     scf convergence threshold =      1.0E-12
     mixing beta               =       0.7000
     number of iterations used =            8  plain     mixing
     energy convergence thresh.=      1.0E-04
     force convergence thresh. =      1.0E-03
     press convergence thresh. =      5.0E-01
     Exchange-correlation= PBESOL
                           (   1   4  10   8   0   0   0)
     nstep                     =           50

     celldm(1)=   5.550000  celldm(2)=   0.000000  celldm(3)=   0.000000
     celldm(4)=   0.000000  celldm(5)=   0.000000  celldm(6)=   0.000000

     crystal axes: (cart. coord. in units of alat)
               a(1) = (   1.043732   0.000891   0.000000 )
               a(2) = (  -0.521795   0.901190   0.000000 )
               a(3) = (   0.000000   0.000000  10.000000 )

     reciprocal axes: (cart. coord. in units 2 pi/alat)
               b(1) = (  0.957627  0.554472  0.000000 )
               b(2) = ( -0.000947  1.109096  0.000000 )
               b(3) = (  0.000000  0.000000  0.100000 )

     PseudoPot. # 1 for Ta read from file:
     /shared/home/as3359/pseudo/Ta.pbesol-spfn-rrkjus_psl.1.0.0.UPF
     MD5 check sum: f099565ffaca9b150a52e9412a28e20b
     Pseudo is Ultrasoft + core correction, Zval = 27.0
     Generated using &quot;atomic&quot; code by A. Dal Corso  v.6.3
     Using radial grid of 1273 points,  8 beta functions with:
                l(1) =   0
                l(2) =   0
                l(3) =   1
                l(4) =   1
                l(5) =   2
                l(6) =   2
                l(7) =   3
                l(8) =   3
     Q(r) pseudized with 0 coefficients

     PseudoPot. # 2 for C  read from file:
     /shared/home/as3359/pseudo/C.pbesol-n-rrkjus_psl.1.0.0.UPF
     MD5 check sum: 05995be603a8a7c99da3dc4413f31573
     Pseudo is Ultrasoft + core correction, Zval =  4.0
     Generated using &quot;atomic&quot; code by A. Dal Corso  v.6.3MaX
     Using radial grid of 1073 points,  4 beta functions with:
                l(1) =   0
                l(2) =   0
                l(3) =   1
                l(4) =   1
     Q(r) pseudized with 0 coefficients

     PseudoPot. # 3 for O  read from file:
     /shared/home/as3359/pseudo/O.pbesol-n-rrkjus_psl.1.0.0.UPF
     MD5 check sum: dd9bad2534826f832ffc9296591fc5de
     Pseudo is Ultrasoft + core correction, Zval =  6.0
     Generated using &quot;atomic&quot; code by A. Dal Corso  v.6.3MaX
     Using radial grid of 1095 points,  4 beta functions with:
                l(1) =   0
                l(2) =   0
                l(3) =   1
                l(4) =   1
     Q(r) pseudized with 0 coefficients

     atomic species   valence    mass     pseudopotential
        Ta            27.00   180.94788     Ta( 1.00)
        C              4.00    12.01070     C ( 1.00)
        O              6.00    15.99940     O ( 1.00)

     No symmetry found

   Cartesian axes

     site n.     atom                  positions (alat units)
         1           C   tau(   1) = (  -0.1376285   0.0180317   0.0193959  )
         2           Ta  tau(   2) = (   0.3841511   0.3192090  -0.4303689  )
         3           Ta  tau(   3) = (  -0.1376464   0.6197159   0.4272142  )
         4           O   tau(   4) = (   0.3845753   0.3202170   0.8049305  )
         5           O   tau(   5) = (  -0.1374362   0.0185582  -0.8211192  )

     number of k points=    74
                       cart. coord. in units 2pi/alat
        k(    1) = (   0.0000000   0.0000000   0.0000000), wk =   0.0138889
        k(    2) = (  -0.0000789   0.0924246   0.0000000), wk =   0.0277778
        k(    3) = (  -0.0001578   0.1848493   0.0000000), wk =   0.0277778
        k(    4) = (  -0.0002367   0.2772739   0.0000000), wk =   0.0277778
        k(    5) = (  -0.0003157   0.3696985   0.0000000), wk =   0.0277778
        k(    6) = (  -0.0003946   0.4621232   0.0000000), wk =   0.0277778
        k(    7) = (   0.0004735  -0.5545478   0.0000000), wk =   0.0138889
        k(    8) = (   0.0798022   0.0462060   0.0000000), wk =   0.0277778
        k(    9) = (   0.0797233   0.1386307   0.0000000), wk =   0.0277778
        k(   10) = (   0.0796444   0.2310553   0.0000000), wk =   0.0277778
        k(   11) = (   0.0795655   0.3234799   0.0000000), wk =   0.0277778
        k(   12) = (   0.0794866   0.4159046   0.0000000), wk =   0.0277778
        k(   13) = (   0.0794077   0.5083292   0.0000000), wk =   0.0277778
        k(   14) = (   0.0802757  -0.5083418   0.0000000), wk =   0.0277778
        k(   15) = (   0.0801968  -0.4159171   0.0000000), wk =   0.0277778
        k(   16) = (   0.0801179  -0.3234925   0.0000000), wk =   0.0277778
        k(   17) = (   0.0800390  -0.2310679   0.0000000), wk =   0.0277778
        k(   18) = (   0.0799601  -0.1386432   0.0000000), wk =   0.0277778
        k(   19) = (   0.0798811  -0.0462186   0.0000000), wk =   0.0277778
        k(   20) = (   0.1596045   0.0924121   0.0000000), wk =   0.0277778
        k(   21) = (   0.1595256   0.1848367   0.0000000), wk =   0.0277778
        k(   22) = (   0.1594466   0.2772613   0.0000000), wk =   0.0277778
        k(   23) = (   0.1593677   0.3696860   0.0000000), wk =   0.0277778
        k(   24) = (   0.1592888   0.4621106   0.0000000), wk =   0.0277778
        k(   25) = (   0.1592099   0.5545352   0.0000000), wk =   0.0277778
        k(   26) = (   0.1600779  -0.4621357   0.0000000), wk =   0.0277778
        k(   27) = (   0.1599990  -0.3697111   0.0000000), wk =   0.0277778
        k(   28) = (   0.1599201  -0.2772865   0.0000000), wk =   0.0277778
        k(   29) = (   0.1598412  -0.1848618   0.0000000), wk =   0.0277778
        k(   30) = (   0.1597623  -0.0924372   0.0000000), wk =   0.0277778
        k(   31) = (   0.1596834  -0.0000126   0.0000000), wk =   0.0277778
        k(   32) = (   0.2394067   0.1386181   0.0000000), wk =   0.0277778
        k(   33) = (   0.2393278   0.2310427   0.0000000), wk =   0.0277778
        k(   34) = (   0.2392489   0.3234674   0.0000000), wk =   0.0277778
        k(   35) = (   0.2391700   0.4158920   0.0000000), wk =   0.0277778
        k(   36) = (   0.2390910   0.5083166   0.0000000), wk =   0.0277778
        k(   37) = (   0.2390121   0.6007413   0.0000000), wk =   0.0277778
        k(   38) = (   0.2398802  -0.4159297   0.0000000), wk =   0.0277778
        k(   39) = (   0.2398013  -0.3235051   0.0000000), wk =   0.0277778
        k(   40) = (   0.2397223  -0.2310804   0.0000000), wk =   0.0277778
        k(   41) = (   0.2396434  -0.1386558   0.0000000), wk =   0.0277778
        k(   42) = (   0.2395645  -0.0462312   0.0000000), wk =   0.0277778
        k(   43) = (   0.2394856   0.0461935   0.0000000), wk =   0.0277778
        k(   44) = (   0.3192089   0.1848241   0.0000000), wk =   0.0277778
        k(   45) = (   0.3191300   0.2772488   0.0000000), wk =   0.0277778
        k(   46) = (   0.3190511   0.3696734   0.0000000), wk =   0.0277778
        k(   47) = (   0.3189722   0.4620980   0.0000000), wk =   0.0277778
        k(   48) = (   0.3188933   0.5545227   0.0000000), wk =   0.0277778
        k(   49) = (   0.3188144   0.6469473   0.0000000), wk =   0.0277778
        k(   50) = (   0.3196824  -0.3697237   0.0000000), wk =   0.0277778
        k(   51) = (   0.3196035  -0.2772990   0.0000000), wk =   0.0277778
        k(   52) = (   0.3195246  -0.1848744   0.0000000), wk =   0.0277778
        k(   53) = (   0.3194457  -0.0924498   0.0000000), wk =   0.0277778
        k(   54) = (   0.3193668  -0.0000251   0.0000000), wk =   0.0277778
        k(   55) = (   0.3192878   0.0923995   0.0000000), wk =   0.0277778
        k(   56) = (   0.3990112   0.2310302   0.0000000), wk =   0.0277778
        k(   57) = (   0.3989322   0.3234548   0.0000000), wk =   0.0277778
        k(   58) = (   0.3988533   0.4158794   0.0000000), wk =   0.0277778
        k(   59) = (   0.3987744   0.5083041   0.0000000), wk =   0.0277778
        k(   60) = (   0.3986955   0.6007287   0.0000000), wk =   0.0277778
        k(   61) = (   0.3986166   0.6931533   0.0000000), wk =   0.0277778
        k(   62) = (   0.3994846  -0.3235176   0.0000000), wk =   0.0277778
        k(   63) = (   0.3994057  -0.2310930   0.0000000), wk =   0.0277778
        k(   64) = (   0.3993268  -0.1386684   0.0000000), wk =   0.0277778
        k(   65) = (   0.3992479  -0.0462437   0.0000000), wk =   0.0277778
        k(   66) = (   0.3991690   0.0461809   0.0000000), wk =   0.0277778
        k(   67) = (   0.3990901   0.1386055   0.0000000), wk =   0.0277778
        k(   68) = (  -0.4788134  -0.2772362   0.0000000), wk =   0.0138889
        k(   69) = (  -0.4788923  -0.1848116   0.0000000), wk =   0.0277778
        k(   70) = (  -0.4789712  -0.0923869   0.0000000), wk =   0.0277778
        k(   71) = (  -0.4790501   0.0000377   0.0000000), wk =   0.0277778
        k(   72) = (  -0.4791290   0.0924623   0.0000000), wk =   0.0277778
        k(   73) = (  -0.4792080   0.1848870   0.0000000), wk =   0.0277778
        k(   74) = (  -0.4783399  -0.8317840   0.0000000), wk =   0.0138889

     Check: negative core charge=   -0.000001

     Initial potential from superposition of free atoms

     starting charge   69.99841, renormalised to   70.00000

     negative rho (up, down):  2.279E-04 0.000E+00
     Starting wfcs are   46 randomized atomic wfcs

     Self-consistent Calculation

     iteration #  1     ecut=    70.00 Ry     beta= 0.70
     Davidson diagonalization with overlap
     ethr =  1.00E-02,  avg # of iterations =  2.0

     negative rho (up, down):  6.877E-07 0.000E+00

     total energy              =   -1437.37765730 Ry
     estimated scf accuracy    <       1.65631403 Ry

[...]

     iteration #  3     ecut=    70.00 Ry     beta= 0.70
     Davidson diagonalization with overlap
     c_bands:  2 eigenvalues not converged
     c_bands:  1 eigenvalues not converged
     c_bands:  1 eigenvalues not converged
     c_bands:  2 eigenvalues not converged
     c_bands:  2 eigenvalues not converged
     c_bands:  1 eigenvalues not converged
     c_bands:  2 eigenvalues not converged
     c_bands:  2 eigenvalues not converged
[...]
  -0.00000145   0.00000314   0.00000069           -0.21        0.46        0.10
   0.00000037   0.00000069  -0.00000669            0.05        0.10       -0.98

     BFGS Geometry Optimization
     Energy error            =      0.0E+00 Ry
     Gradient error          =      5.5E-04 Ry/Bohr
     Cell gradient error     =      6.2E-01 kbar

     number of scf cycles    =   1
     number of bfgs steps    =   0

     enthalpy           new  =   -1438.3561663542 Ry

     new trust radius        =       0.0008971561 bohr
     new conv_thr            =            1.0E-12 Ry

     new unit-cell volume =   1608.74507 a.u.^3 (   238.39142 Ang^3 )
     density =      2.82737 g/cm^3

CELL_PARAMETERS (alat=  5.55000000)
   1.043621758   0.000853255   0.000000000
  -0.521772723   0.901279808   0.000000000
   0.000000000   0.000000000  10.000000000

ATOMIC_POSITIONS (alat)
C            -0.1377133724        0.0180122470        0.0193696543
Ta            0.3841532415        0.3191927635       -0.4303678607
Ta           -0.1376201001        0.6197180364        0.4272250410
O             0.3845466693        0.3203097843        0.8049467426
O            -0.1374359175        0.0185878492       -0.8211210772

     Writing output data file /scratch/as3359/Ta2CO2_loop/Ta.save/
     NEW-OLD atomic charge density approx. for the potential

[...]

     negative rho (up, down):  3.260E-04 0.000E+00
     extrapolated charge   69.99810, renormalised to   70.00000

[...]

     Threshold (ethr) on eigenvalues was too large:
     Diagonalizing with lowered threshold

     Davidson diagonalization with overlap
     ethr =  5.75E-09,  avg # of iterations =  7.9

[...]

     Energy error            =      1.8E-06 Ry
     Gradient error          =      3.1E-04 Ry/Bohr
     Cell gradient error     =      5.0E-01 kbar

     number of scf cycles    =   2
     number of bfgs steps    =   1

     enthalpy           old  =   -1438.3561663542 Ry
     enthalpy           new  =   -1438.3561681390 Ry

     CASE: enthalpy          _new < enthalpy          _old

     new trust radius        =       0.0009869655 bohr
     new conv_thr            =            1.0E-14 Ry

     new unit-cell volume =   1608.69893 a.u.^3 (   238.38459 Ang^3 )
     density =      2.82745 g/cm^3

[...]

ATOMIC_POSITIONS (alat)
C            -0.1377535929        0.0179989873        0.0193518109
Ta            0.3841239137        0.3191886175       -0.4303720764
Ta           -0.1376120631        0.6197216018        0.4272315874
O             0.3845131793        0.3204021870        0.8049676767
O            -0.1374316125        0.0186103814       -0.8211264986

     Writing output data file /scratch/as3359/Ta2CO2_loop/Ta.save/
     NEW-OLD atomic charge density approx. for the potential

[...]

     negative rho (up, down):  3.259E-04 0.000E+00
     extrapolated charge   69.99799, renormalised to   70.00000

[...]

     Threshold (ethr) on eigenvalues was too large:
     Diagonalizing with lowered threshold

     Davidson diagonalization with overlap
     ethr =  6.10E-09,  avg # of iterations =  8.1

[...]

     Energy error            =      1.2E-06 Ry
     Gradient error          =      1.7E-04 Ry/Bohr
     Cell gradient error     =      3.8E-01 kbar

     bfgs converged in   3 scf cycles and   2 bfgs steps
     (criteria: energy <  1.0E-04 Ry, force <  1.0E-03Ry/Bohr, cell <  5.0E-01kbar)

     End of BFGS Geometry Optimization

     Final enthalpy           =   -1438.3561693827 Ry

     File /scratch/as3359/Ta2CO2_loop/Ta.bfgs deleted, as requested
Begin final coordinates
     new unit-cell volume =   1608.69893 a.u.^3 (   238.38459 Ang^3 )
     density =      2.82745 g/cm^3

CELL_PARAMETERS (alat=  5.55000000)
   1.043499546   0.000813847   0.000000000
  -0.521745737   0.901379229   0.000000000
   0.000000000   0.000000000  10.000000000

ATOMIC_POSITIONS (alat)
C            -0.1377535929        0.0179989873        0.0193518109
Ta            0.3841239137        0.3191886175       -0.4303720764
Ta           -0.1376120631        0.6197216018        0.4272315874
O             0.3845131793        0.3204021870        0.8049676767
O            -0.1374316125        0.0186103814       -0.8211264986
End final coordinates

     Writing output data file /scratch/as3359/Ta2CO2_loop/Ta.save/

     Final scf calculation at the relaxed structure.
     The G-vectors are recalculated for the final unit cell
     Results may differ from those at the preceding step.

     Using Slab Decomposition

     bravais-lattice index     =            0
     lattice parameter (alat)  =       5.5500  a.u.
     unit-cell volume          =    1608.6989 (a.u.)^3
     number of atoms/cell      =            5
     number of atomic types    =            3
     number of electrons       =        70.00
     number of Kohn-Sham states=           35
     kinetic-energy cutoff     =      70.0000  Ry
     charge density cutoff     =     400.0000  Ry
     scf convergence threshold =      1.0E-14
     mixing beta               =       0.7000
     number of iterations used =            8  plain     mixing
     press convergence thresh. =      5.0E-01
     Exchange-correlation= PBESOL
                           (   1   4  10   8   0   0   0)

     celldm(1)=   5.550000  celldm(2)=   0.000000  celldm(3)=   0.000000
     celldm(4)=   0.000000  celldm(5)=   0.000000  celldm(6)=   0.000000

     crystal axes: (cart. coord. in units of alat)
               a(1) = (   1.043500   0.000814   0.000000 )
               a(2) = (  -0.521746   0.901379   0.000000 )
               a(3) = (   0.000000   0.000000  10.000000 )

     reciprocal axes: (cart. coord. in units 2 pi/alat)
               b(1) = (  0.957881  0.554451  0.000000 )
               b(2) = ( -0.000865  1.108910  0.000000 )
               b(3) = (  0.000000  0.000000  0.100000 )

     PseudoPot. # 1 for Ta read from file:
     /shared/home/as3359/pseudo/Ta.pbesol-spfn-rrkjus_psl.1.0.0.UPF
     MD5 check sum: f099565ffaca9b150a52e9412a28e20b
     Pseudo is Ultrasoft + core correction, Zval = 27.0
     Generated using &quot;atomic&quot; code by A. Dal Corso  v.6.3
     Using radial grid of 1273 points,  8 beta functions with:
                l(1) =   0
                l(2) =   0
                l(3) =   1
                l(4) =   1
                l(5) =   2
                l(6) =   2
                l(7) =   3
                l(8) =   3
     Q(r) pseudized with 0 coefficients

     PseudoPot. # 2 for C  read from file:
     /shared/home/as3359/pseudo/C.pbesol-n-rrkjus_psl.1.0.0.UPF
     MD5 check sum: 05995be603a8a7c99da3dc4413f31573
     Pseudo is Ultrasoft + core correction, Zval =  4.0
     Generated using &quot;atomic&quot; code by A. Dal Corso  v.6.3MaX
     Using radial grid of 1073 points,  4 beta functions with:
                l(1) =   0
                l(2) =   0
                l(3) =   1
                l(4) =   1
     Q(r) pseudized with 0 coefficients

     PseudoPot. # 3 for O  read from file:
     /shared/home/as3359/pseudo/O.pbesol-n-rrkjus_psl.1.0.0.UPF
     MD5 check sum: dd9bad2534826f832ffc9296591fc5de
     Pseudo is Ultrasoft + core correction, Zval =  6.0
     Generated using &quot;atomic&quot; code by A. Dal Corso  v.6.3MaX
     Using radial grid of 1095 points,  4 beta functions with:
                l(1) =   0
                l(2) =   0
                l(3) =   1
                l(4) =   1
     Q(r) pseudized with 0 coefficients

     atomic species   valence    mass     pseudopotential
        Ta            27.00   180.94788     Ta( 1.00)
        C              4.00    12.01070     C ( 1.00)
        O              6.00    15.99940     O ( 1.00)

     No symmetry found

   Cartesian axes

     site n.     atom                  positions (alat units)
         1           C   tau(   1) = (  -0.1377536   0.0179990   0.0193518  )
         2           Ta  tau(   2) = (   0.3841239   0.3191886  -0.4303721  )
         3           Ta  tau(   3) = (  -0.1376121   0.6197216   0.4272316  )
         4           O   tau(   4) = (   0.3845132   0.3204022   0.8049677  )
         5           O   tau(   5) = (  -0.1374316   0.0186104  -0.8211265  )

     number of k points=    74
                       cart. coord. in units 2pi/alat
        k(    1) = (   0.0000000   0.0000000   0.0000000), wk =   0.0138889
        k(    2) = (  -0.0000721   0.0924092   0.0000000), wk =   0.0277778
        k(    3) = (  -0.0001441   0.1848184   0.0000000), wk =   0.0277778
        k(    4) = (  -0.0002162   0.2772276   0.0000000), wk =   0.0277778
        k(    5) = (  -0.0002883   0.3696368   0.0000000), wk =   0.0277778
        k(    6) = (  -0.0003604   0.4620460   0.0000000), wk =   0.0277778
        k(    7) = (   0.0004324  -0.5544552   0.0000000), wk =   0.0138889
        k(    8) = (   0.0798234   0.0462042   0.0000000), wk =   0.0277778
        k(    9) = (   0.0797514   0.1386134   0.0000000), wk =   0.0277778
        k(   10) = (   0.0796793   0.2310226   0.0000000), wk =   0.0277778
        k(   11) = (   0.0796072   0.3234318   0.0000000), wk =   0.0277778
        k(   12) = (   0.0795352   0.4158410   0.0000000), wk =   0.0277778
        k(   13) = (   0.0794631   0.5082502   0.0000000), wk =   0.0277778
        k(   14) = (   0.0802559  -0.5082509   0.0000000), wk =   0.0277778
        k(   15) = (   0.0801838  -0.4158417   0.0000000), wk =   0.0277778
        k(   16) = (   0.0801117  -0.3234325   0.0000000), wk =   0.0277778
        k(   17) = (   0.0800397  -0.2310233   0.0000000), wk =   0.0277778
        k(   18) = (   0.0799676  -0.1386142   0.0000000), wk =   0.0277778
        k(   19) = (   0.0798955  -0.0462050   0.0000000), wk =   0.0277778
        k(   20) = (   0.1596469   0.0924085   0.0000000), wk =   0.0277778
        k(   21) = (   0.1595748   0.1848177   0.0000000), wk =   0.0277778
        k(   22) = (   0.1595027   0.2772269   0.0000000), wk =   0.0277778
        k(   23) = (   0.1594307   0.3696361   0.0000000), wk =   0.0277778
        k(   24) = (   0.1593586   0.4620453   0.0000000), wk =   0.0277778
        k(   25) = (   0.1592865   0.5544545   0.0000000), wk =   0.0277778
        k(   26) = (   0.1600793  -0.4620467   0.0000000), wk =   0.0277778
        k(   27) = (   0.1600073  -0.3696375   0.0000000), wk =   0.0277778
        k(   28) = (   0.1599352  -0.2772283   0.0000000), wk =   0.0277778
        k(   29) = (   0.1598631  -0.1848191   0.0000000), wk =   0.0277778
        k(   30) = (   0.1597910  -0.0924099   0.0000000), wk =   0.0277778
        k(   31) = (   0.1597190  -0.0000007   0.0000000), wk =   0.0277778
        k(   32) = (   0.2394703   0.1386127   0.0000000), wk =   0.0277778
        k(   33) = (   0.2393983   0.2310219   0.0000000), wk =   0.0277778
        k(   34) = (   0.2393262   0.3234311   0.0000000), wk =   0.0277778
        k(   35) = (   0.2392541   0.4158403   0.0000000), wk =   0.0277778
        k(   36) = (   0.2391821   0.5082495   0.0000000), wk =   0.0277778
        k(   37) = (   0.2391100   0.6006587   0.0000000), wk =   0.0277778
        k(   38) = (   0.2399028  -0.4158425   0.0000000), wk =   0.0277778
        k(   39) = (   0.2398307  -0.3234333   0.0000000), wk =   0.0277778
        k(   40) = (   0.2397586  -0.2310241   0.0000000), wk =   0.0277778
        k(   41) = (   0.2396866  -0.1386149   0.0000000), wk =   0.0277778
        k(   42) = (   0.2396145  -0.0462057   0.0000000), wk =   0.0277778
        k(   43) = (   0.2395424   0.0462035   0.0000000), wk =   0.0277778
        k(   44) = (   0.3192938   0.1848170   0.0000000), wk =   0.0277778
        k(   45) = (   0.3192217   0.2772262   0.0000000), wk =   0.0277778
        k(   46) = (   0.3191496   0.3696354   0.0000000), wk =   0.0277778
        k(   47) = (   0.3190776   0.4620446   0.0000000), wk =   0.0277778
        k(   48) = (   0.3190055   0.5544537   0.0000000), wk =   0.0277778
        k(   49) = (   0.3189334   0.6468629   0.0000000), wk =   0.0277778
        k(   50) = (   0.3197262  -0.3696382   0.0000000), wk =   0.0277778
        k(   51) = (   0.3196541  -0.2772290   0.0000000), wk =   0.0277778
        k(   52) = (   0.3195821  -0.1848198   0.0000000), wk =   0.0277778
        k(   53) = (   0.3195100  -0.0924106   0.0000000), wk =   0.0277778
        k(   54) = (   0.3194379  -0.0000014   0.0000000), wk =   0.0277778
        k(   55) = (   0.3193659   0.0924078   0.0000000), wk =   0.0277778
        k(   56) = (   0.3991172   0.2310212   0.0000000), wk =   0.0277778
        k(   57) = (   0.3990452   0.3234304   0.0000000), wk =   0.0277778
        k(   58) = (   0.3989731   0.4158396   0.0000000), wk =   0.0277778
        k(   59) = (   0.3989010   0.5082488   0.0000000), wk =   0.0277778
        k(   60) = (   0.3988289   0.6006580   0.0000000), wk =   0.0277778
        k(   61) = (   0.3987569   0.6930672   0.0000000), wk =   0.0277778
        k(   62) = (   0.3995497  -0.3234340   0.0000000), wk =   0.0277778
        k(   63) = (   0.3994776  -0.2310248   0.0000000), wk =   0.0277778
        k(   64) = (   0.3994055  -0.1386156   0.0000000), wk =   0.0277778
        k(   65) = (   0.3993334  -0.0462064   0.0000000), wk =   0.0277778
        k(   66) = (   0.3992614   0.0462028   0.0000000), wk =   0.0277778
        k(   67) = (   0.3991893   0.1386120   0.0000000), wk =   0.0277778
        k(   68) = (  -0.4789407  -0.2772254   0.0000000), wk =   0.0138889
        k(   69) = (  -0.4790128  -0.1848162   0.0000000), wk =   0.0277778
        k(   70) = (  -0.4790848  -0.0924071   0.0000000), wk =   0.0277778
        k(   71) = (  -0.4791569   0.0000021   0.0000000), wk =   0.0277778
        k(   72) = (  -0.4792290   0.0924113   0.0000000), wk =   0.0277778
        k(   73) = (  -0.4793010   0.1848205   0.0000000), wk =   0.0277778
        k(   74) = (  -0.4785082  -0.8316806   0.0000000), wk =   0.0138889

     Check: negative core charge=   -0.000001

     Initial potential from superposition of free atoms

     starting charge   69.99841, renormalised to   70.00000

     negative rho (up, down):  2.279E-04 0.000E+00
     Starting wfcs are   46 randomized atomic wfcs

     Self-consistent Calculation

[...]

     iteration # 32     ecut=    70.00 Ry     beta= 0.70
     Davidson diagonalization with overlap
     c_bands:  1 eigenvalues not converged
     ethr =  2.52E-11,  avg # of iterations =  3.2

[...]

     total energy              =   -1438.35616893 Ry
     estimated scf accuracy    <          5.6E-14 Ry

     iteration # 67     ecut=    70.00 Ry     beta= 0.70
     Davidson diagonalization with overlap
     ethr =  1.00E-13,  avg # of iterations =  1.0

[...]

     End of self-consistent calculation

[...]

          k = 0.3992 0.1386 0.0000 ( 15919 PWs)   bands (ev):

[...]

          k =-0.4785-0.8317 0.0000 ( 15918 PWs)   bands (ev):

   -69.6600 -68.8646 -36.7284 -36.2259 -36.1095 -35.8139 -35.4096 -35.2625
   -21.3497 -21.2810 -21.2792 -21.2645 -21.2586 -21.2564 -21.2521 -20.5822
   -20.5302 -20.5169 -20.5107 -20.4978 -20.4883 -20.4803 -19.6244 -18.7055
   -12.2110  -8.7203  -6.5185  -6.2682  -6.0732  -5.6130  -5.1458  -4.9686
    -3.3699  -3.0710  -1.7685

     highest occupied level (ev):    -0.2678

!    total energy              =   -1438.35616894 Ry
     estimated scf accuracy    <          9.2E-15 Ry

     The total energy is the sum of the following terms:
     one-electron contribution =  -14107.01879064 Ry
     hartree contribution      =    7084.40945680 Ry
     xc contribution           =    -153.69902182 Ry
     ewald contribution        =    5737.95218672 Ry

     convergence has been achieved in  67 iterations

     negative rho (up, down):  3.263E-04 0.000E+00

     Forces acting on atoms (cartesian axes, Ry/au):

     atom    1 type  2   force =     0.00001272   -0.00001354   -0.00001833
     atom    2 type  1   force =    -0.00001565    0.00000713   -0.00002581
     atom    3 type  1   force =    -0.00002303   -0.00016340    0.00001193
     atom    4 type  3   force =     0.00005543    0.00017165    0.00006780
     atom    5 type  3   force =    -0.00002948   -0.00000184   -0.00003558

     Total force =     0.000261     Total SCF correction =     0.000001

     Computing stress (Cartesian axis) and pressure

     negative rho (up, down):  3.263E-04 0.000E+00
          total   stress  (Ry/bohr**3)                   (kbar)     P=       -0.36
  -0.00000259  -0.00000078   0.00000023           -0.38       -0.12        0.03
  -0.00000078   0.00000199   0.00000023           -0.12        0.29        0.03
   0.00000023   0.00000023  -0.00000669            0.03        0.03       -0.98

     Writing output data file /scratch/as3359/Ta2CO2_loop/Ta.save/

     General routines

     Parallel routines

   This run was terminated on:  15: 2:25   7Apr2022

   JOB DONE.