     Program PWSCF v.6.8 starts on  6Apr2022 at 17:57: 9

     R & G space division:  proc/nbgrp/npool/nimage =       2

     Reading input from Ta2CF.vcrelax.in

     Current dimensions of program PWSCF are:
     Max number of different atomic species (ntypx) = 10
     Max number of k-points (npk) =  40000
     Max angular momentum in pseudopotentials (lmaxx) =  4
     file Ta.pbesol-spfn-rrkjus_psl.1.0.0.UPF: wavefunction(s)  5S 5P renormalized
     file F.pbesol-n-rrkjus_psl.1.0.0.UPF: wavefunction(s)  2S renormalized
     Message from routine setup:
     using ibrav=0 with symmetry is DISCOURAGED, use correct ibrav instead

     Subspace diagonalization in iterative solution of the eigenvalue problem:
     a serial algorithm will be used

     Using Slab Decomposition

     bravais-lattice index     =            0
     lattice parameter (alat)  =       5.8997  a.u.
     unit-cell volume          =    1029.4026 (a.u.)^3
     number of atoms/cell      =            4
     number of atomic types    =            3
     number of electrons       =        65.00
     number of Kohn-Sham states=           40
     kinetic-energy cutoff     =      65.0000  Ry
     charge density cutoff     =     600.0000  Ry
     scf convergence threshold =      1.0E-07
     mixing beta               =       0.7000
     number of iterations used =            8  plain     mixing
     energy convergence thresh.=      1.0E-04
     force convergence thresh. =      1.0E-03
     press convergence thresh. =      5.0E-01
     Exchange-correlation= PBESOL
                           (   1   4  10   8   0   0   0)
     nstep                     =           50

     celldm(1)=   5.899700  celldm(2)=   0.000000  celldm(3)=   0.000000
     celldm(4)=   0.000000  celldm(5)=   0.000000  celldm(6)=   0.000000

     crystal axes: (cart. coord. in units of alat)
               a(1) = (   0.982216   0.000000   0.000000 )
               a(2) = (  -0.491108   0.850624   0.000000 )
               a(3) = (   0.000000   0.000000   6.000000 )

     reciprocal axes: (cart. coord. in units 2 pi/alat)
               b(1) = (  1.018106  0.587804  0.000000 )
               b(2) = (  0.000000  1.175608  0.000000 )
               b(3) = (  0.000000  0.000000  0.166667 )

     PseudoPot. # 1 for Ta read from file:
     /shared/home/as3359/pseudo/Ta.pbesol-spfn-rrkjus_psl.1.0.0.UPF
     MD5 check sum: f099565ffaca9b150a52e9412a28e20b
     Pseudo is Ultrasoft + core correction, Zval = 27.0
     Generated using &quot;atomic&quot; code by A. Dal Corso  v.6.3
     Using radial grid of 1273 points,  8 beta functions with:
                l(1) =   0
                l(2) =   0
                l(3) =   1
                l(4) =   1
                l(5) =   2
                l(6) =   2
                l(7) =   3
                l(8) =   3
     Q(r) pseudized with 0 coefficients

     PseudoPot. # 2 for C  read from file:
     /shared/home/as3359/pseudo/C.pbesol-n-rrkjus_psl.1.0.0.UPF
     MD5 check sum: 05995be603a8a7c99da3dc4413f31573
     Pseudo is Ultrasoft + core correction, Zval =  4.0
     Generated using &quot;atomic&quot; code by A. Dal Corso  v.6.3MaX
     Using radial grid of 1073 points,  4 beta functions with:
                l(1) =   0
                l(2) =   0
                l(3) =   1
                l(4) =   1
     Q(r) pseudized with 0 coefficients

     PseudoPot. # 3 for F  read from file:
     /shared/home/as3359/pseudo/F.pbesol-n-rrkjus_psl.1.0.0.UPF
     MD5 check sum: 56b7518b93d9f54031eb04610776f7c7
     Pseudo is Ultrasoft + core correction, Zval =  7.0
     Generated using &quot;atomic&quot; code by A. Dal Corso  v.6.3MaX
     Using radial grid of 1105 points,  4 beta functions with:
                l(1) =   0
                l(2) =   0
                l(3) =   1
                l(4) =   1
     Q(r) pseudized with 0 coefficients

     atomic species   valence    mass     pseudopotential
        Ta            27.00   180.94788     Ta( 1.00)
        C              4.00    12.01070     C ( 1.00)
        F              7.00    18.99840     F ( 1.00)

      6 Sym. Ops. (no inversion) found

   Cartesian axes

     site n.     atom                  positions (alat units)
         1           Ta  tau(   1) = (  -0.0000000   0.5670824   0.2560246  )
         2           C   tau(   2) = (   0.0000000   0.0000000   0.5417101  )
         3           Ta  tau(   3) = (   0.4911078   0.2835412   0.8514717  )
         4           F   tau(   4) = (   0.0000000   0.0000000   1.3000316  )

     number of k points=    19  Marzari-Vanderbilt smearing, width (Ry)=  0.0050
                       cart. coord. in units 2pi/alat
        k(    1) = (   0.0000000   0.0000000   0.0000000), wk =   0.0138889
        k(    2) = (   0.0000000   0.0979673   0.0000000), wk =   0.0833333
        k(    3) = (   0.0000000   0.1959347   0.0000000), wk =   0.0833333
        k(    4) = (   0.0000000   0.2939020   0.0000000), wk =   0.0833333
        k(    5) = (   0.0000000   0.3918694   0.0000000), wk =   0.0833333
        k(    6) = (   0.0000000   0.4898367   0.0000000), wk =   0.0833333
        k(    7) = (   0.0000000  -0.5878040   0.0000000), wk =   0.0416667
        k(    8) = (   0.0848422   0.1469510   0.0000000), wk =   0.0833333
        k(    9) = (   0.0848422   0.2449183   0.0000000), wk =   0.1666667
        k(   10) = (   0.0848422   0.3428857   0.0000000), wk =   0.1666667
        k(   11) = (   0.0848422   0.4408530   0.0000000), wk =   0.1666667
        k(   12) = (   0.0848422   0.5388204   0.0000000), wk =   0.1666667
        k(   13) = (   0.1696844   0.2939020   0.0000000), wk =   0.0833333
        k(   14) = (   0.1696844   0.3918694   0.0000000), wk =   0.1666667
        k(   15) = (   0.1696844   0.4898367   0.0000000), wk =   0.1666667
        k(   16) = (   0.1696844   0.5878040   0.0000000), wk =   0.0833333
        k(   17) = (   0.2545266   0.4408530   0.0000000), wk =   0.0833333
        k(   18) = (   0.2545266   0.5388204   0.0000000), wk =   0.1666667
        k(   19) = (   0.3393688   0.5878040   0.0000000), wk =   0.0277778

     Initial potential from superposition of free atoms

     starting charge   64.99842, renormalised to   65.00000

     negative rho (up, down):  8.407E-05 0.000E+00
     Starting wfcs are   42 randomized atomic wfcs

     Self-consistent Calculation

     iteration #  1     ecut=    65.00 Ry     beta= 0.70
     CG style diagonalization
     ethr =  1.00E-02,  avg # of iterations =  2.3

     total energy              =   -1420.83070160 Ry
     estimated scf accuracy    <       1.68524424 Ry

[...]

     negative rho (up, down):  8.238E-06 0.000E+00

[...]

     iteration #  8     ecut=    65.00 Ry     beta= 0.70
     CG style diagonalization
     c_bands:  1 eigenvalues not converged
     c_bands:  1 eigenvalues not converged
     c_bands:  1 eigenvalues not converged
     c_bands:  1 eigenvalues not converged
     c_bands:  1 eigenvalues not converged
     c_bands:  1 eigenvalues not converged
     ethr =  1.19E-06,  avg # of iterations =  4.9

[...]

     End of self-consistent calculation

          k = 0.0000 0.0000 0.0000 (  9133 PWs)   bands (ev):

   -65.5144 -64.5359 -32.9061 -31.8947 -31.8947 -31.0341 -30.9009 -30.9009
   -22.5302 -17.0988 -17.0529 -17.0529 -17.0477 -17.0477 -17.0017 -16.9286
   -16.1878 -16.1197 -16.1197 -16.1091 -16.1091 -16.1022 -16.0251 -10.5733
    -6.1877  -4.2101  -4.2101  -3.4867  -3.4867  -2.7910   1.6038   1.6038
     2.0147   3.8767   5.0240   5.0240   5.5294   7.0289   7.4176   8.0095

[...]

     the Fermi energy is     2.9330 ev

!    total energy              =   -1421.83316600 Ry
     estimated scf accuracy    <       0.00000007 Ry
     smearing contrib. (-TS)   =      -0.00013335 Ry
     internal energy E=F+TS    =   -1421.83303265 Ry

     The total energy is F=E-TS. E is the sum of the following terms:
     one-electron contribution =   -7476.53710664 Ry
     hartree contribution      =    3777.06492798 Ry
     xc contribution           =    -149.04369664 Ry
     ewald contribution        =    2426.68284265 Ry

     convergence has been achieved in  14 iterations

[...]

     Forces acting on atoms (cartesian axes, Ry/au):

     atom    1 type  1   force =     0.00000000    0.00000000   -0.36818199
     atom    2 type  2   force =     0.00000000    0.00000000    0.00515418
     atom    3 type  1   force =     0.00000000    0.00000000    0.28962208
     atom    4 type  3   force =     0.00000000    0.00000000    0.07340573

     Total force =     0.474188     Total SCF correction =     0.003857

     Computing stress (Cartesian axis) and pressure

     negative rho (up, down):  8.278E-05 0.000E+00
          total   stress  (Ry/bohr**3)                   (kbar)     P=      177.87
   0.00110800  -0.00000000   0.00000000          162.99       -0.00        0.00
  -0.00000000   0.00110800   0.00000000           -0.00      162.99        0.00
   0.00000000  -0.00000000   0.00141143            0.00       -0.00      207.63

     BFGS Geometry Optimization
     Energy error            =      0.0E+00 Ry
     Gradient error          =      3.7E-01 Ry/Bohr
     Cell gradient error     =      1.6E+02 kbar

     number of scf cycles    =   1
     number of bfgs steps    =   0

     enthalpy           new  =   -1421.8331660038 Ry

     new trust radius        =       0.3681819887 bohr
     new conv_thr            =       0.0000001000 Ry

     new unit-cell volume =   1087.22142 a.u.^3 (   161.10959 Ang^3 )
     density =      4.04963 g/cm^3

CELL_PARAMETERS (alat=  5.89970000)
   1.009422931  -0.000000000   0.000000000
  -0.504711465   0.874185902   0.000000000
   0.000000000   0.000000000   6.000000000

ATOMIC_POSITIONS (crystal)
Ta            0.3333333330        0.6666666670        0.0322696201    0   0   1
C             0.0000000000        0.0000000000        0.0904306211    0   0   1
Ta            0.6666666670        0.3333333330        0.1500937859    0   0   1
F             0.0000000000        0.0000000000        0.2187456459

     Writing output data file /scratch/as3359/Ta2CF-VCrelax-5/Ta.save/
     NEW-OLD atomic charge density approx. for the potential

     negative rho (up, down):  5.682E-05 0.000E+00
     extrapolated charge   68.45664, renormalised to   65.00000

[...]

          k =-0.0000-0.5720 0.0000 (  9088 PWs)   bands (ev):

[...]

     Energy error            =      1.4E-01 Ry
     Gradient error          =      9.4E-02 Ry/Bohr
     Cell gradient error     =      1.0E+01 kbar

[...]

     enthalpy           old  =   -1421.8331660038 Ry
     enthalpy           new  =   -1421.9692660748 Ry

     CASE: enthalpy          _new < enthalpy          _old

[...]

     iteration #  8     ecut=    65.00 Ry     beta= 0.70
     CG style diagonalization
     ethr =  3.60E-03,  avg # of iterations =  3.1
     Minimization algorithm failed to find Fermi energy: reverting to bisection
     Possible cause: smearing is larger than the electronic band-gap.

[...]

     iteration #  5     ecut=    65.00 Ry     beta= 0.70
     CG style diagonalization
     ethr =  1.00E-02,  avg # of iterations =  3.2
     Minimization algorithm failed to find Fermi energy: reverting to bisection
     Possible cause: smearing is larger than the electronic band-gap.

[...]

     Total force =     0.011702     Total SCF correction =     0.000449

[...]

     Total force =     0.005458     Total SCF correction =     0.001208
     SCF correction compared to forces is large: reduce conv_thr to get better values

[...]

     number of scf cycles    =  10
     number of bfgs steps    =   9

     enthalpy           old  =   -1422.0224226510 Ry
     enthalpy           new  =   -1422.0225498786 Ry

     CASE: enthalpy          _new < enthalpy          _old

     new trust radius        =       0.0076717206 bohr
     new conv_thr            =       0.0000000013 Ry

     new unit-cell volume =    981.12318 a.u.^3 (   145.38746 Ang^3 )
     density =      4.48755 g/cm^3

[...]

ATOMIC_POSITIONS (crystal)
Ta            0.3333333330        0.6666666670        0.0180472743    0   0   1
C             0.0000000000        0.0000000000        0.0870512094    0   0   1
Ta            0.6666666670        0.3333333330        0.1541084506    0   0   1
F            -0.0000000000       -0.0000000000        0.2323327386

     Writing output data file /scratch/as3359/Ta2CF-VCrelax-5/Ta.save/
     NEW-OLD atomic charge density approx. for the potential

     negative rho (up, down):  1.037E-04 0.000E+00
     extrapolated charge   65.04278, renormalised to   65.00000

[...]

     iteration #  3     ecut=    65.00 Ry     beta= 0.70
     CG style diagonalization
     c_bands:  1 eigenvalues not converged
     ethr =  4.73E-05,  avg # of iterations =  4.0
     Minimization algorithm failed to find Fermi energy: reverting to bisection
     Possible cause: smearing is larger than the electronic band-gap.

[...]

     Energy error            =      2.9E-05 Ry
     Gradient error          =      4.9E-04 Ry/Bohr
     Cell gradient error     =      1.6E-02 kbar

     bfgs converged in  11 scf cycles and  10 bfgs steps
     (criteria: energy <  1.0E-04 Ry, force <  1.0E-03Ry/Bohr, cell <  5.0E-01kbar)

     End of BFGS Geometry Optimization

     Final enthalpy           =   -1422.0225784232 Ry

     File /scratch/as3359/Ta2CF-VCrelax-5/Ta.bfgs deleted, as requested
Begin final coordinates
     new unit-cell volume =    981.12318 a.u.^3 (   145.38746 Ang^3 )
     density =      4.48755 g/cm^3

CELL_PARAMETERS (alat=  5.89970000)
   0.958905775   0.000000000   0.000000000
  -0.479452887   0.830436762   0.000000000
   0.000000000   0.000000000   6.000000000

ATOMIC_POSITIONS (crystal)
Ta            0.3333333330        0.6666666670        0.0180472743    0   0   1
C             0.0000000000        0.0000000000        0.0870512094    0   0   1
Ta            0.6666666670        0.3333333330        0.1541084506    0   0   1
F            -0.0000000000       -0.0000000000        0.2323327386
End final coordinates

     Writing output data file /scratch/as3359/Ta2CF-VCrelax-5/Ta.save/

     Final scf calculation at the relaxed structure.
     The G-vectors are recalculated for the final unit cell
     Results may differ from those at the preceding step.

     Using Slab Decomposition

     bravais-lattice index     =            0
     lattice parameter (alat)  =       5.8997  a.u.
     unit-cell volume          =     981.1232 (a.u.)^3
     number of atoms/cell      =            4
     number of atomic types    =            3
     number of electrons       =        65.00
     number of Kohn-Sham states=           40
     kinetic-energy cutoff     =      65.0000  Ry
     charge density cutoff     =     600.0000  Ry
     scf convergence threshold =      1.3E-09
     mixing beta               =       0.7000
     number of iterations used =            8  plain     mixing
     press convergence thresh. =      5.0E-01
     Exchange-correlation= PBESOL
                           (   1   4  10   8   0   0   0)

     celldm(1)=   5.899700  celldm(2)=   0.000000  celldm(3)=   0.000000
     celldm(4)=   0.000000  celldm(5)=   0.000000  celldm(6)=   0.000000

     crystal axes: (cart. coord. in units of alat)
               a(1) = (   0.958906   0.000000   0.000000 )
               a(2) = (  -0.479453   0.830437   0.000000 )
               a(3) = (   0.000000   0.000000   6.000000 )

     reciprocal axes: (cart. coord. in units 2 pi/alat)
               b(1) = (  1.042855  0.602093  0.000000 )
               b(2) = ( -0.000000  1.204186  0.000000 )
               b(3) = (  0.000000  0.000000  0.166667 )

     PseudoPot. # 1 for Ta read from file:
     /shared/home/as3359/pseudo/Ta.pbesol-spfn-rrkjus_psl.1.0.0.UPF
     MD5 check sum: f099565ffaca9b150a52e9412a28e20b
     Pseudo is Ultrasoft + core correction, Zval = 27.0
     Generated using &quot;atomic&quot; code by A. Dal Corso  v.6.3
     Using radial grid of 1273 points,  8 beta functions with:
                l(1) =   0
                l(2) =   0
                l(3) =   1
                l(4) =   1
                l(5) =   2
                l(6) =   2
                l(7) =   3
                l(8) =   3
     Q(r) pseudized with 0 coefficients

     PseudoPot. # 2 for C  read from file:
     /shared/home/as3359/pseudo/C.pbesol-n-rrkjus_psl.1.0.0.UPF
     MD5 check sum: 05995be603a8a7c99da3dc4413f31573
     Pseudo is Ultrasoft + core correction, Zval =  4.0
     Generated using &quot;atomic&quot; code by A. Dal Corso  v.6.3MaX
     Using radial grid of 1073 points,  4 beta functions with:
                l(1) =   0
                l(2) =   0
                l(3) =   1
                l(4) =   1
     Q(r) pseudized with 0 coefficients

     PseudoPot. # 3 for F  read from file:
     /shared/home/as3359/pseudo/F.pbesol-n-rrkjus_psl.1.0.0.UPF
     MD5 check sum: 56b7518b93d9f54031eb04610776f7c7
     Pseudo is Ultrasoft + core correction, Zval =  7.0
     Generated using &quot;atomic&quot; code by A. Dal Corso  v.6.3MaX
     Using radial grid of 1105 points,  4 beta functions with:
                l(1) =   0
                l(2) =   0
                l(3) =   1
                l(4) =   1
     Q(r) pseudized with 0 coefficients

     atomic species   valence    mass     pseudopotential
        Ta            27.00   180.94788     Ta( 1.00)
        C              4.00    12.01070     C ( 1.00)
        F              7.00    18.99840     F ( 1.00)

      6 Sym. Ops. (no inversion) found

   Cartesian axes

     site n.     atom                  positions (alat units)
         1           Ta  tau(   1) = (  -0.0000000   0.5536245   0.1082836  )
         2           C   tau(   2) = (   0.0000000   0.0000000   0.5223073  )
         3           Ta  tau(   3) = (   0.4794529   0.2768123   0.9246507  )
         4           F   tau(   4) = (  -0.0000000  -0.0000000   1.3939964  )

     number of k points=    19  Marzari-Vanderbilt smearing, width (Ry)=  0.0050
                       cart. coord. in units 2pi/alat
        k(    1) = (   0.0000000   0.0000000   0.0000000), wk =   0.0138889
        k(    2) = (  -0.0000000   0.1003488   0.0000000), wk =   0.0833333
        k(    3) = (  -0.0000000   0.2006976   0.0000000), wk =   0.0833333
        k(    4) = (  -0.0000000   0.3010464   0.0000000), wk =   0.0833333
        k(    5) = (  -0.0000000   0.4013952   0.0000000), wk =   0.0833333
        k(    6) = (  -0.0000000   0.5017440   0.0000000), wk =   0.0833333
        k(    7) = (   0.0000000  -0.6020928   0.0000000), wk =   0.0416667
        k(    8) = (   0.0869046   0.1505232   0.0000000), wk =   0.0833333
        k(    9) = (   0.0869046   0.2508720   0.0000000), wk =   0.1666667
        k(   10) = (   0.0869046   0.3512208   0.0000000), wk =   0.1666667
        k(   11) = (   0.0869046   0.4515696   0.0000000), wk =   0.1666667
        k(   12) = (   0.0869046   0.5519184   0.0000000), wk =   0.1666667
        k(   13) = (   0.1738092   0.3010464   0.0000000), wk =   0.0833333
        k(   14) = (   0.1738092   0.4013952   0.0000000), wk =   0.1666667
        k(   15) = (   0.1738092   0.5017440   0.0000000), wk =   0.1666667
        k(   16) = (   0.1738092   0.6020928   0.0000000), wk =   0.0833333
        k(   17) = (   0.2607138   0.4515696   0.0000000), wk =   0.0833333
        k(   18) = (   0.2607138   0.5519184   0.0000000), wk =   0.1666667
        k(   19) = (   0.3476184   0.6020928   0.0000000), wk =   0.0277778

     Initial potential from superposition of free atoms

     starting charge   64.99842, renormalised to   65.00000

     negative rho (up, down):  7.213E-05 0.000E+00
     Starting wfcs are   42 randomized atomic wfcs

     Self-consistent Calculation

     iteration #  1     ecut=    65.00 Ry     beta= 0.70
     CG style diagonalization
     c_bands:  1 eigenvalues not converged
     c_bands:  2 eigenvalues not converged
     c_bands:  2 eigenvalues not converged
     c_bands:  3 eigenvalues not converged
     c_bands:  3 eigenvalues not converged
     c_bands:  3 eigenvalues not converged
     c_bands:  4 eigenvalues not converged
     c_bands:  2 eigenvalues not converged
     c_bands:  4 eigenvalues not converged
     c_bands:  4 eigenvalues not converged
     c_bands:  4 eigenvalues not converged
     c_bands:  3 eigenvalues not converged
     c_bands:  2 eigenvalues not converged
     c_bands:  5 eigenvalues not converged
     c_bands:  1 eigenvalues not converged
     ethr =  1.00E-06,  avg # of iterations = 10.5

[...]

     total energy              =   -1422.02173047 Ry
     estimated scf accuracy    <          8.9E-09 Ry

     iteration # 16     ecut=    65.00 Ry     beta= 0.70
     CG style diagonalization
     ethr =  1.36E-11,  avg # of iterations =  4.0

[...]

     End of self-consistent calculation

[...]

          k =-0.0000 0.5017 0.0000 (  8682 PWs)   bands (ev):

[...]

          k = 0.3476 0.6021 0.0000 (  8685 PWs)   bands (ev):

   -65.3990 -64.5007 -32.2345 -32.1379 -32.0724 -31.2115 -31.1507 -31.1241
   -22.0696 -17.1116 -17.1078 -17.0975 -17.0903 -17.0902 -17.0593 -17.0207
   -16.2292 -16.2283 -16.2237 -16.2007 -16.1915 -16.1762 -16.1408  -8.1035
    -4.8811  -4.4954  -4.1108  -2.5136  -2.3163  -1.0610   2.4948   2.7387
     3.0663   5.7737   5.9176   6.2908   7.0701   7.6216  10.0102  11.6568

     the Fermi energy is     3.4211 ev

!    total energy              =   -1422.02173048 Ry
     estimated scf accuracy    <          3.5E-10 Ry
     smearing contrib. (-TS)   =      -0.00012769 Ry
     internal energy E=F+TS    =   -1422.02160280 Ry

     The total energy is F=E-TS. E is the sum of the following terms:
     one-electron contribution =   -6864.49271735 Ry
     hartree contribution      =    3471.13638251 Ry
     xc contribution           =    -148.33436113 Ry
     ewald contribution        =    2119.66909317 Ry

     convergence has been achieved in  16 iterations

     negative rho (up, down):  7.096E-05 0.000E+00

     Forces acting on atoms (cartesian axes, Ry/au):

     atom    1 type  1   force =     0.00000000   -0.00000000    0.00017152
     atom    2 type  2   force =     0.00000000   -0.00000000   -0.00005114
     atom    3 type  1   force =    -0.00000000    0.00000000   -0.00042754
     atom    4 type  3   force =    -0.00000000    0.00000000    0.00030716

     Total force =     0.000556     Total SCF correction =     0.000081
     SCF correction compared to forces is large: reduce conv_thr to get better values

     Computing stress (Cartesian axis) and pressure

     negative rho (up, down):  7.096E-05 0.000E+00
          total   stress  (Ry/bohr**3)                   (kbar)     P=       -1.91
  -0.00000831   0.00000000   0.00000000           -1.22        0.00        0.00
   0.00000000  -0.00000831   0.00000000            0.00       -1.22        0.00
   0.00000000   0.00000000  -0.00002243            0.00        0.00       -3.30

     Writing output data file /scratch/as3359/Ta2CF-VCrelax-5/Ta.save/

     General routines

     Parallel routines

   This run was terminated on:  18:37: 1   6Apr2022

   JOB DONE.