     Program PWSCF v.6.8 starts on  6Apr2022 at 18:37: 2

     R & G space division:  proc/nbgrp/npool/nimage =       2

     Reading input from Ta2CF.relax.in

     Current dimensions of program PWSCF are:
     Max number of different atomic species (ntypx) = 10
     Max number of k-points (npk) =  40000
     Max angular momentum in pseudopotentials (lmaxx) =  4
     file Ta.pbesol-spfn-rrkjus_psl.1.0.0.UPF: wavefunction(s)  5S 5P renormalized
     file F.pbesol-n-rrkjus_psl.1.0.0.UPF: wavefunction(s)  2S renormalized
     Message from routine setup:
     using ibrav=0 with symmetry is DISCOURAGED, use correct ibrav instead

     Subspace diagonalization in iterative solution of the eigenvalue problem:
     a serial algorithm will be used

     Using Slab Decomposition

     bravais-lattice index     =            0
     lattice parameter (alat)  =       5.8997  a.u.
     unit-cell volume          =     981.1232 (a.u.)^3
     number of atoms/cell      =            4
     number of atomic types    =            3
     number of electrons       =        65.00
     number of Kohn-Sham states=           40
     kinetic-energy cutoff     =      65.0000  Ry
     charge density cutoff     =     600.0000  Ry
     scf convergence threshold =      1.0E-12
     mixing beta               =       0.7000
     number of iterations used =            8  plain     mixing
     energy convergence thresh.=      1.0E-04
     force convergence thresh. =      1.0E-03
     Exchange-correlation= PBESOL
                           (   1   4  10   8   0   0   0)
     nstep                     =           50

     celldm(1)=   5.899700  celldm(2)=   0.000000  celldm(3)=   0.000000
     celldm(4)=   0.000000  celldm(5)=   0.000000  celldm(6)=   0.000000

     crystal axes: (cart. coord. in units of alat)
               a(1) = (   0.958906   0.000000   0.000000 )
               a(2) = (  -0.479453   0.830437   0.000000 )
               a(3) = (   0.000000   0.000000   6.000000 )

     reciprocal axes: (cart. coord. in units 2 pi/alat)
               b(1) = (  1.042855  0.602093  0.000000 )
               b(2) = (  0.000000  1.204186  0.000000 )
               b(3) = (  0.000000  0.000000  0.166667 )

     PseudoPot. # 1 for Ta read from file:
     /shared/home/as3359/pseudo/Ta.pbesol-spfn-rrkjus_psl.1.0.0.UPF
     MD5 check sum: f099565ffaca9b150a52e9412a28e20b
     Pseudo is Ultrasoft + core correction, Zval = 27.0
     Generated using &quot;atomic&quot; code by A. Dal Corso  v.6.3
     Using radial grid of 1273 points,  8 beta functions with:
                l(1) =   0
                l(2) =   0
                l(3) =   1
                l(4) =   1
                l(5) =   2
                l(6) =   2
                l(7) =   3
                l(8) =   3
     Q(r) pseudized with 0 coefficients

     PseudoPot. # 2 for C  read from file:
     /shared/home/as3359/pseudo/C.pbesol-n-rrkjus_psl.1.0.0.UPF
     MD5 check sum: 05995be603a8a7c99da3dc4413f31573
     Pseudo is Ultrasoft + core correction, Zval =  4.0
     Generated using &quot;atomic&quot; code by A. Dal Corso  v.6.3MaX
     Using radial grid of 1073 points,  4 beta functions with:
                l(1) =   0
                l(2) =   0
                l(3) =   1
                l(4) =   1
     Q(r) pseudized with 0 coefficients

     PseudoPot. # 3 for F  read from file:
     /shared/home/as3359/pseudo/F.pbesol-n-rrkjus_psl.1.0.0.UPF
     MD5 check sum: 56b7518b93d9f54031eb04610776f7c7
     Pseudo is Ultrasoft + core correction, Zval =  7.0
     Generated using &quot;atomic&quot; code by A. Dal Corso  v.6.3MaX
     Using radial grid of 1105 points,  4 beta functions with:
                l(1) =   0
                l(2) =   0
                l(3) =   1
                l(4) =   1
     Q(r) pseudized with 0 coefficients

     atomic species   valence    mass     pseudopotential
        Ta            27.00   180.94788     Ta( 1.00)
        C              4.00    12.01070     C ( 1.00)
        F              7.00    18.99840     F ( 1.00)

      6 Sym. Ops. (no inversion) found

   Cartesian axes

     site n.     atom                  positions (alat units)
         1           Ta  tau(   1) = (   0.0000000   0.5536245   0.1082836  )
         2           C   tau(   2) = (   0.0000000   0.0000000   0.5223073  )
         3           Ta  tau(   3) = (   0.4794529   0.2768123   0.9246507  )
         4           F   tau(   4) = (   0.0000000   0.0000000   1.3939964  )

     number of k points=    19  Marzari-Vanderbilt smearing, width (Ry)=  0.0010
                       cart. coord. in units 2pi/alat
        k(    1) = (   0.0000000   0.0000000   0.0000000), wk =   0.0138889
        k(    2) = (   0.0000000   0.1003488   0.0000000), wk =   0.0833333
        k(    3) = (   0.0000000   0.2006976   0.0000000), wk =   0.0833333
        k(    4) = (   0.0000000   0.3010464   0.0000000), wk =   0.0833333
        k(    5) = (   0.0000000   0.4013952   0.0000000), wk =   0.0833333
        k(    6) = (   0.0000000   0.5017440   0.0000000), wk =   0.0833333
        k(    7) = (   0.0000000  -0.6020928   0.0000000), wk =   0.0416667
        k(    8) = (   0.0869046   0.1505232   0.0000000), wk =   0.0833333
        k(    9) = (   0.0869046   0.2508720   0.0000000), wk =   0.1666667
        k(   10) = (   0.0869046   0.3512208   0.0000000), wk =   0.1666667
        k(   11) = (   0.0869046   0.4515696   0.0000000), wk =   0.1666667
        k(   12) = (   0.0869046   0.5519184   0.0000000), wk =   0.1666667
        k(   13) = (   0.1738092   0.3010464   0.0000000), wk =   0.0833333
        k(   14) = (   0.1738092   0.4013952   0.0000000), wk =   0.1666667
        k(   15) = (   0.1738092   0.5017440   0.0000000), wk =   0.1666667
        k(   16) = (   0.1738092   0.6020928   0.0000000), wk =   0.0833333
        k(   17) = (   0.2607138   0.4515696   0.0000000), wk =   0.0833333
        k(   18) = (   0.2607138   0.5519184   0.0000000), wk =   0.1666667
        k(   19) = (   0.3476184   0.6020928   0.0000000), wk =   0.0277778

     Initial potential from superposition of free atoms

     starting charge   64.99842, renormalised to   65.00000

     negative rho (up, down):  7.213E-05 0.000E+00
     Starting wfcs are   42 randomized atomic wfcs

     Self-consistent Calculation

     iteration #  1     ecut=    65.00 Ry     beta= 0.70
     CG style diagonalization
     ethr =  1.00E-02,  avg # of iterations =  2.3

     total energy              =   -1421.23545639 Ry
     estimated scf accuracy    <       1.24382084 Ry

[...]

     negative rho (up, down):  1.205E-07 0.000E+00

[...]

     iteration #  4     ecut=    65.00 Ry     beta= 0.70
     CG style diagonalization
     ethr =  1.91E-03,  avg # of iterations =  3.3
     Minimization algorithm failed to find Fermi energy: reverting to bisection
     Possible cause: smearing is larger than the electronic band-gap.

[...]

     iteration #  9     ecut=    65.00 Ry     beta= 0.70
     CG style diagonalization
     c_bands:  1 eigenvalues not converged
     ethr =  1.98E-06,  avg # of iterations =  3.8

[...]

     iteration # 23     ecut=    65.00 Ry     beta= 0.70
     CG style diagonalization
     c_bands:  1 eigenvalues not converged
     ethr =  1.00E-13,  avg # of iterations =  3.4

[...]

     End of self-consistent calculation

          k = 0.0000 0.0000 0.0000 (  8761 PWs)   bands (ev):

   -65.4675 -64.5858 -32.3284 -31.5635 -31.5635 -31.2530 -30.6463 -30.6463
   -22.2993 -17.1188 -17.1082 -17.1082 -17.0903 -17.0903 -17.0755 -17.0042
   -16.2680 -16.2291 -16.2291 -16.2237 -16.2237 -16.2152 -16.1435  -9.9272
    -5.3071  -3.4584  -3.4584  -2.7154  -0.5579  -0.5579   1.2920   2.8110
     3.4119   3.4119   5.1293   5.1293   5.1641   6.2037   6.2037   6.5323

[...]

     the Fermi energy is     3.3919 ev

!    total energy              =   -1422.02169810 Ry
     estimated scf accuracy    <          4.1E-13 Ry
     smearing contrib. (-TS)   =       0.00000733 Ry
     internal energy E=F+TS    =   -1422.02170543 Ry

     The total energy is F=E-TS. E is the sum of the following terms:
     one-electron contribution =   -6864.45681242 Ry
     hartree contribution      =    3471.09977699 Ry
     xc contribution           =    -148.33370828 Ry
     ewald contribution        =    2119.66903828 Ry

     convergence has been achieved in  23 iterations

[...]

     Forces acting on atoms (cartesian axes, Ry/au):

     atom    1 type  1   force =     0.00000000   -0.00000000   -0.00203753
     atom    2 type  2   force =     0.00000000    0.00000000    0.00152211
     atom    3 type  1   force =     0.00000000   -0.00000000    0.00005255
     atom    4 type  3   force =     0.00000000    0.00000000    0.00046287

     Total force =     0.002586     Total SCF correction =     0.000005

     Computing stress (Cartesian axis) and pressure

     negative rho (up, down):  7.099E-05 0.000E+00
          total   stress  (Ry/bohr**3)                   (kbar)     P=       -1.73
  -0.00001035   0.00000000   0.00000000           -1.52        0.00        0.00
   0.00000000  -0.00001035   0.00000000            0.00       -1.52        0.00
   0.00000000   0.00000000  -0.00001454            0.00        0.00       -2.14

     BFGS Geometry Optimization
     Energy error            =      0.0E+00 Ry
     Gradient error          =      2.0E-03 Ry/Bohr

     number of scf cycles    =   1
     number of bfgs steps    =   0

     energy             new  =   -1422.0216980997 Ry

     new trust radius        =       0.0020375285 bohr
     new conv_thr            =            1.0E-12 Ry

ATOMIC_POSITIONS (alat)
Ta           -0.0000000000        0.5536245000        0.1079382386
C             0.0000000000        0.0000000000        0.5225652975
Ta            0.4794529000        0.2768123000        0.9246596078
F             0.0000000000        0.0000000000        1.3940748561

     Writing output data file /scratch/as3359/Ta2CF-VCrelax-5/Ta.save/
     NEW-OLD atomic charge density approx. for the potential

[...]

     Threshold (ethr) on eigenvalues was too large:
     Diagonalizing with lowered threshold

     CG style diagonalization
     ethr =  2.39E-09,  avg # of iterations =  4.0

[...]

     Energy error            =      4.9E-06 Ry
     Gradient error          =      1.0E-03 Ry/Bohr

     number of scf cycles    =   2
     number of bfgs steps    =   1

     energy             old  =   -1422.0216980997 Ry
     energy             new  =   -1422.0217029705 Ry

     CASE: energy            _new < energy            _old

     new trust radius        =       0.0019127218 bohr
     new conv_thr            =            1.0E-14 Ry

ATOMIC_POSITIONS (alat)
Ta            0.0000000000        0.5536245000        0.1076140320
C             0.0000000000        0.0000000000        0.5227295040
Ta            0.4794529000        0.2768123000        0.9247205115
F             0.0000000000        0.0000000000        1.3941739524

     Writing output data file /scratch/as3359/Ta2CF-VCrelax-5/Ta.save/
     NEW-OLD atomic charge density approx. for the potential

[...]

     Self-consistent Calculation

[...]

     Threshold (ethr) on eigenvalues was too large:
     Diagonalizing with lowered threshold

     CG style diagonalization
     ethr =  3.31E-09,  avg # of iterations =  4.1

[...]

     total energy              =   -1422.02170426 Ry
     estimated scf accuracy    <          1.6E-14 Ry

     iteration # 19     ecut=    65.00 Ry     beta= 0.70
     CG style diagonalization
     ethr =  1.00E-13,  avg # of iterations =  3.0

[...]

     End of self-consistent calculation

[...]

          k = 0.3476 0.6021 0.0000 (  8685 PWs)   bands (ev):

   -65.4012 -64.5226 -32.2376 -32.1410 -32.0721 -31.2336 -31.1731 -31.1392
   -22.0616 -17.1128 -17.1090 -17.0985 -17.0924 -17.0923 -17.0627 -17.0240
   -16.2503 -16.2494 -16.2443 -16.2231 -16.2141 -16.2006 -16.1652  -8.1081
    -4.8744  -4.4886  -4.1041  -2.5192  -2.3186  -1.0692   2.4952   2.7226
     3.0501   5.7704   5.9141   6.2773   7.0447   7.6225   9.9964  10.7921

     the Fermi energy is     3.3934 ev

!    total energy              =   -1422.02170426 Ry
     estimated scf accuracy    <          3.4E-15 Ry
     smearing contrib. (-TS)   =       0.00000244 Ry
     internal energy E=F+TS    =   -1422.02170670 Ry

     The total energy is F=E-TS. E is the sum of the following terms:
     one-electron contribution =   -6861.50544324 Ry
     hartree contribution      =    3469.62068424 Ry
     xc contribution           =    -148.33130002 Ry
     ewald contribution        =    2118.19435232 Ry

     convergence has been achieved in  19 iterations

     negative rho (up, down):  7.098E-05 0.000E+00

     Forces acting on atoms (cartesian axes, Ry/au):

     atom    1 type  1   force =     0.00000000   -0.00000000    0.00001441
     atom    2 type  2   force =     0.00000000    0.00000000   -0.00030294
     atom    3 type  1   force =     0.00000000    0.00000000    0.00010108
     atom    4 type  3   force =     0.00000000    0.00000000    0.00018745

     Total force =     0.000371     Total SCF correction =     0.000000

     Computing stress (Cartesian axis) and pressure

     negative rho (up, down):  7.098E-05 0.000E+00
          total   stress  (Ry/bohr**3)                   (kbar)     P=       -2.26
  -0.00001256   0.00000000  -0.00000000           -1.85        0.00       -0.00
   0.00000000  -0.00001256   0.00000000            0.00       -1.85        0.00
   0.00000000  -0.00000000  -0.00002095            0.00       -0.00       -3.08

     Energy error            =      1.3E-06 Ry
     Gradient error          =      3.0E-04 Ry/Bohr

     bfgs converged in   3 scf cycles and   2 bfgs steps
     (criteria: energy <  1.0E-04 Ry, force <  1.0E-03 Ry/Bohr)

     End of BFGS Geometry Optimization

     Final energy             =   -1422.0217042585 Ry

     File /scratch/as3359/Ta2CF-VCrelax-5/Ta.bfgs deleted, as requested
Begin final coordinates

ATOMIC_POSITIONS (alat)
Ta            0.0000000000        0.5536245000        0.1076140320
C             0.0000000000        0.0000000000        0.5227295040
Ta            0.4794529000        0.2768123000        0.9247205115
F             0.0000000000        0.0000000000        1.3941739524
End final coordinates

     Writing output data file /scratch/as3359/Ta2CF-VCrelax-5/Ta.save/

     General routines

     Parallel routines

   This run was terminated on:  18:43:21   6Apr2022

   JOB DONE.