     Program PWSCF v.6.8 starts on 22Apr2022 at  8:25:14

     R & G space division:  proc/nbgrp/npool/nimage =       2

     Reading input from Ta2CH2.relax.in
Warning: card  &CELL ignored
Warning: card     CELL_DYNAMICS='BFGS', CELL_DOFREE ='2DXY' ignored
Warning: card  / ignored

     Current dimensions of program PWSCF are:
     Max number of different atomic species (ntypx) = 10
     Max number of k-points (npk) =  40000
     Max angular momentum in pseudopotentials (lmaxx) =  4
     file Ta.pbesol-spfn-rrkjus_psl.1.0.0.UPF: wavefunction(s)  5S 5P renormalized
     Message from routine setup:
     using ibrav=0 with symmetry is DISCOURAGED, use correct ibrav instead

     Subspace diagonalization in iterative solution of the eigenvalue problem:
     a serial algorithm will be used

     Using Slab Decomposition

     bravais-lattice index     =            0
     lattice parameter (alat)  =       5.5500  a.u.
     unit-cell volume          =    1637.0834 (a.u.)^3
     number of atoms/cell      =            5
     number of atomic types    =            3
     number of electrons       =        60.00
     number of Kohn-Sham states=           36
     kinetic-energy cutoff     =      70.0000  Ry
     charge density cutoff     =     700.0000  Ry
     scf convergence threshold =      1.0E-12
     mixing beta               =       0.7000
     number of iterations used =            8  plain     mixing
     energy convergence thresh.=      1.0E-04
     force convergence thresh. =      1.0E-03
     Exchange-correlation= PBESOL
                           (   1   4  10   8   0   0   0)
     nstep                     =           50

     celldm(1)=   5.550000  celldm(2)=   0.000000  celldm(3)=   0.000000
     celldm(4)=   0.000000  celldm(5)=   0.000000  celldm(6)=   0.000000

     crystal axes: (cart. coord. in units of alat)
               a(1) = (   1.051552   0.000000   0.000000 )
               a(2) = (  -0.525776   0.910670   0.000000 )
               a(3) = (   0.000000   0.000000  10.000000 )

     reciprocal axes: (cart. coord. in units 2 pi/alat)
               b(1) = (  0.950976  0.549046  0.000000 )
               b(2) = (  0.000000  1.098092  0.000000 )
               b(3) = (  0.000000  0.000000  0.100000 )

     PseudoPot. # 1 for Ta read from file:
     /shared/home/as3359/pseudo/Ta.pbesol-spfn-rrkjus_psl.1.0.0.UPF
     MD5 check sum: f099565ffaca9b150a52e9412a28e20b
     Pseudo is Ultrasoft + core correction, Zval = 27.0
     Generated using &quot;atomic&quot; code by A. Dal Corso  v.6.3
     Using radial grid of 1273 points,  8 beta functions with:
                l(1) =   0
                l(2) =   0
                l(3) =   1
                l(4) =   1
                l(5) =   2
                l(6) =   2
                l(7) =   3
                l(8) =   3
     Q(r) pseudized with 0 coefficients

     PseudoPot. # 2 for C  read from file:
     /shared/home/as3359/pseudo/C.pbesol-n-rrkjus_psl.1.0.0.UPF
     MD5 check sum: 05995be603a8a7c99da3dc4413f31573
     Pseudo is Ultrasoft + core correction, Zval =  4.0
     Generated using &quot;atomic&quot; code by A. Dal Corso  v.6.3MaX
     Using radial grid of 1073 points,  4 beta functions with:
                l(1) =   0
                l(2) =   0
                l(3) =   1
                l(4) =   1
     Q(r) pseudized with 0 coefficients

     PseudoPot. # 3 for H  read from file:
     /shared/home/as3359/pseudo/H.pbesol-rrkjus_psl.0.1.UPF
     MD5 check sum: 1dbb1a5c48b1283557b8117eb856a7ca
     Pseudo is Ultrasoft, Zval =  1.0
     Generated using "atomic" code by A. Dal Corso  v.5.0.2 svn rev. 9415
     Using radial grid of  929 points,  2 beta functions with:
                l(1) =   0
                l(2) =   0
     Q(r) pseudized with 0 coefficients

     atomic species   valence    mass     pseudopotential
        Ta            27.00   180.94788     Ta( 1.00)
        C              4.00    12.01070     C ( 1.00)
        H              1.00     1.00000     H ( 1.00)

      6 Sym. Ops. (no inversion) found

   Cartesian axes

     site n.     atom                  positions (alat units)
         1           C   tau(   1) = (   0.0000000   0.0000000   0.0000000  )
         2           Ta  tau(   2) = (   0.5257758   0.3035568  -0.4219608  )
         3           Ta  tau(   3) = (   0.0000000   0.6071136   0.4236065  )
         4           H   tau(   4) = (   0.0000000   0.6071136   1.0328006  )
         5           H   tau(   5) = (   0.5257758   0.3035568  -1.0316598  )

     number of k points=    19  Marzari-Vanderbilt smearing, width (Ry)=  0.0010
                       cart. coord. in units 2pi/alat
        k(    1) = (   0.0000000   0.0000000   0.0000000), wk =   0.0138889
        k(    2) = (   0.0000000   0.0915077   0.0000000), wk =   0.0833333
        k(    3) = (   0.0000000   0.1830153   0.0000000), wk =   0.0833333
        k(    4) = (   0.0000000   0.2745230   0.0000000), wk =   0.0833333
        k(    5) = (   0.0000000   0.3660307   0.0000000), wk =   0.0833333
        k(    6) = (   0.0000000   0.4575384   0.0000000), wk =   0.0833333
        k(    7) = (   0.0000000  -0.5490460   0.0000000), wk =   0.0416667
        k(    8) = (   0.0792480   0.1372615   0.0000000), wk =   0.0833333
        k(    9) = (   0.0792480   0.2287692   0.0000000), wk =   0.1666667
        k(   10) = (   0.0792480   0.3202769   0.0000000), wk =   0.1666667
        k(   11) = (   0.0792480   0.4117845   0.0000000), wk =   0.1666667
        k(   12) = (   0.0792480   0.5032922   0.0000000), wk =   0.1666667
        k(   13) = (   0.1584959   0.2745230   0.0000000), wk =   0.0833333
        k(   14) = (   0.1584959   0.3660307   0.0000000), wk =   0.1666667
        k(   15) = (   0.1584959   0.4575384   0.0000000), wk =   0.1666667
        k(   16) = (   0.1584959   0.5490460   0.0000000), wk =   0.0833333
        k(   17) = (   0.2377439   0.4117845   0.0000000), wk =   0.0833333
        k(   18) = (   0.2377439   0.5032922   0.0000000), wk =   0.1666667
        k(   19) = (   0.3169919   0.5490460   0.0000000), wk =   0.0277778

     Initial potential from superposition of free atoms

     starting charge   59.99840, renormalised to   60.00000

     negative rho (up, down):  4.301E-05 0.000E+00
     Starting wfcs are   40 randomized atomic wfcs

     Self-consistent Calculation

     iteration #  1     ecut=    70.00 Ry     beta= 0.70
     Davidson diagonalization with overlap
     ethr =  1.00E-02,  avg # of iterations =  2.2

     negative rho (up, down):  1.814E-05 0.000E+00

     total energy              =   -1375.12028223 Ry
     estimated scf accuracy    <       0.82855604 Ry

[...]

     End of self-consistent calculation

          k = 0.0000 0.0000 0.0000 ( 16245 PWs)   bands (ev):

   -69.7614 -69.7254 -36.4788 -36.0454 -36.0454 -35.9927 -35.9927 -35.9777
   -21.4365 -21.4298 -21.4023 -21.4023 -21.3900 -21.3900 -21.3765 -21.3741
   -21.3446 -21.3365 -21.3365 -21.3295 -21.3246 -21.3246 -14.7163  -9.1421
    -5.7008  -5.7008  -5.1553  -5.1451  -3.3945  -1.7940  -1.7940   0.2034
     0.2034   1.1250   1.1250   1.6795

[...]

     the Fermi energy is    -1.9778 ev

!    total energy              =   -1375.52177728 Ry
     estimated scf accuracy    <          3.1E-13 Ry
     smearing contrib. (-TS)   =      -0.00001971 Ry
     internal energy E=F+TS    =   -1375.52175758 Ry

     The total energy is F=E-TS. E is the sum of the following terms:
     one-electron contribution =  -10966.62458190 Ry
     hartree contribution      =    5508.94126412 Ry
     xc contribution           =    -140.06660496 Ry
     ewald contribution        =    4222.22816517 Ry

     convergence has been achieved in  20 iterations

[...]

     Forces acting on atoms (cartesian axes, Ry/au):

     atom    1 type  2   force =     0.00000000    0.00000000    0.00103006
     atom    2 type  1   force =     0.00000000    0.00000000   -0.00069210
     atom    3 type  1   force =     0.00000000   -0.00000000   -0.00095620
     atom    4 type  3   force =    -0.00000000   -0.00000000    0.00011960
     atom    5 type  3   force =     0.00000000    0.00000000    0.00049864

     Total force =     0.001648     Total SCF correction =     0.000003

     Computing stress (Cartesian axis) and pressure

     negative rho (up, down):  7.133E-05 0.000E+00
          total   stress  (Ry/bohr**3)                   (kbar)     P=       -0.15
   0.00000124   0.00000000   0.00000000            0.18        0.00        0.00
   0.00000000   0.00000124   0.00000000            0.00        0.18        0.00
   0.00000000  -0.00000000  -0.00000554            0.00       -0.00       -0.82

     BFGS Geometry Optimization
     Energy error            =      0.0E+00 Ry
     Gradient error          =      1.0E-03 Ry/Bohr

     number of scf cycles    =   1
     number of bfgs steps    =   0

     energy             new  =   -1375.5217772808 Ry

     new trust radius        =       0.0010300596 bohr
     new conv_thr            =            1.0E-12 Ry

ATOMIC_POSITIONS (alat)
C             0.0000000000        0.0000000000        0.0001855963
Ta            0.5257758000        0.3035568000       -0.4220855022
Ta           -0.0000000000        0.6071136000        0.4234342118
H            -0.0000000000        0.6071136000        1.0328221490
H             0.5257758000        0.3035568000       -1.0315699549

     Writing output data file /scratch/as3359/Ta2CH2-VCrelax/Ta.save/
     NEW-OLD atomic charge density approx. for the potential

[...]

     Self-consistent Calculation

[...]

     Threshold (ethr) on eigenvalues was too large:
     Diagonalizing with lowered threshold

     Davidson diagonalization with overlap
     ethr =  6.90E-10,  avg # of iterations =  5.8

[...]

     total energy              =   -1375.52177931 Ry
     estimated scf accuracy    <          1.3E-12 Ry

     iteration # 10     ecut=    70.00 Ry     beta= 0.70
     Davidson diagonalization with overlap
     ethr =  1.00E-13,  avg # of iterations =  1.0

[...]

     End of self-consistent calculation

[...]

          k = 0.3170 0.5490 0.0000 ( 16218 PWs)   bands (ev):

   -69.6999 -69.6984 -36.5590 -36.4849 -36.4848 -36.3836 -36.0586 -36.0574
   -21.4191 -21.4174 -21.4039 -21.3921 -21.3904 -21.3849 -21.3831 -21.3802
   -21.3567 -21.3459 -21.3440 -21.3348 -21.3192 -21.3173 -13.0189  -7.5467
    -7.5426  -6.0149  -2.9049  -2.9026  -2.5507  -2.3613  -2.3596  -1.1135
     1.3682   1.3802   3.4448   3.4456

     the Fermi energy is    -1.9778 ev

!    total energy              =   -1375.52177931 Ry
     estimated scf accuracy    <          1.5E-13 Ry
     smearing contrib. (-TS)   =      -0.00001973 Ry
     internal energy E=F+TS    =   -1375.52175958 Ry

     The total energy is F=E-TS. E is the sum of the following terms:
     one-electron contribution =  -10966.79266455 Ry
     hartree contribution      =    5509.02535780 Ry
     xc contribution           =    -140.06675905 Ry
     ewald contribution        =    4222.31230622 Ry

     convergence has been achieved in  10 iterations

     negative rho (up, down):  7.134E-05 0.000E+00

     Forces acting on atoms (cartesian axes, Ry/au):

     atom    1 type  2   force =    -0.00000000   -0.00000000    0.00061537
     atom    2 type  1   force =     0.00000000    0.00000000   -0.00027815
     atom    3 type  1   force =     0.00000000   -0.00000000   -0.00043865
     atom    4 type  3   force =     0.00000000    0.00000000   -0.00012238
     atom    5 type  3   force =     0.00000000    0.00000000    0.00022382

     Total force =     0.000845     Total SCF correction =     0.000006

     Computing stress (Cartesian axis) and pressure

     negative rho (up, down):  7.134E-05 0.000E+00
          total   stress  (Ry/bohr**3)                   (kbar)     P=       -0.13
   0.00000133   0.00000000   0.00000000            0.20        0.00        0.00
   0.00000000   0.00000133   0.00000000            0.00        0.20        0.00
   0.00000000  -0.00000000  -0.00000527            0.00       -0.00       -0.77

     Energy error            =      2.0E-06 Ry
     Gradient error          =      6.2E-04 Ry/Bohr

     bfgs converged in   2 scf cycles and   1 bfgs steps
     (criteria: energy <  1.0E-04 Ry, force <  1.0E-03 Ry/Bohr)

     End of BFGS Geometry Optimization

     Final energy             =   -1375.5217793136 Ry

     File /scratch/as3359/Ta2CH2-VCrelax/Ta.bfgs deleted, as requested
Begin final coordinates

ATOMIC_POSITIONS (alat)
C             0.0000000000        0.0000000000        0.0001855963
Ta            0.5257758000        0.3035568000       -0.4220855022
Ta           -0.0000000000        0.6071136000        0.4234342118
H            -0.0000000000        0.6071136000        1.0328221490
H             0.5257758000        0.3035568000       -1.0315699549
End final coordinates

     Writing output data file /scratch/as3359/Ta2CH2-VCrelax/Ta.save/

     General routines

     Parallel routines

   This run was terminated on:   8:29:18  22Apr2022

   JOB DONE.