     Program PWSCF v.6.8 starts on 22Apr2022 at  7:43: 9

     R & G space division:  proc/nbgrp/npool/nimage =       2

     Reading input from Ta2CH2.vcrelax.in

     Current dimensions of program PWSCF are:
     Max number of different atomic species (ntypx) = 10
     Max number of k-points (npk) =  40000
     Max angular momentum in pseudopotentials (lmaxx) =  4
     file Ta.pbesol-spfn-rrkjus_psl.1.0.0.UPF: wavefunction(s)  5S 5P renormalized
     Message from routine setup:
     using ibrav=0 with symmetry is DISCOURAGED, use correct ibrav instead

     Subspace diagonalization in iterative solution of the eigenvalue problem:
     a serial algorithm will be used

     Using Slab Decomposition

     bravais-lattice index     =            0
     lattice parameter (alat)  =       5.5500  a.u.
     unit-cell volume          =    1603.2166 (a.u.)^3
     number of atoms/cell      =            5
     number of atomic types    =            3
     number of electrons       =        60.00
     number of Kohn-Sham states=           36
     kinetic-energy cutoff     =      70.0000  Ry
     charge density cutoff     =     700.0000  Ry
     scf convergence threshold =      1.0E-12
     mixing beta               =       0.7000
     number of iterations used =            8  plain     mixing
     energy convergence thresh.=      1.0E-04
     force convergence thresh. =      1.0E-03
     press convergence thresh. =      5.0E-01
     Exchange-correlation= PBESOL
                           (   1   4  10   8   0   0   0)
     nstep                     =           50

     celldm(1)=   5.550000  celldm(2)=   0.000000  celldm(3)=   0.000000
     celldm(4)=   0.000000  celldm(5)=   0.000000  celldm(6)=   0.000000

     crystal axes: (cart. coord. in units of alat)
               a(1) = (   1.040618   0.000000   0.000000 )
               a(2) = (  -0.520309   0.901202   0.000000 )
               a(3) = (   0.000000   0.000000  10.000000 )

     reciprocal axes: (cart. coord. in units 2 pi/alat)
               b(1) = (  0.960967  0.554815  0.000000 )
               b(2) = (  0.000000  1.109630  0.000000 )
               b(3) = (  0.000000  0.000000  0.100000 )

     PseudoPot. # 1 for Ta read from file:
     /shared/home/as3359/pseudo/Ta.pbesol-spfn-rrkjus_psl.1.0.0.UPF
     MD5 check sum: f099565ffaca9b150a52e9412a28e20b
     Pseudo is Ultrasoft + core correction, Zval = 27.0
     Generated using &quot;atomic&quot; code by A. Dal Corso  v.6.3
     Using radial grid of 1273 points,  8 beta functions with:
                l(1) =   0
                l(2) =   0
                l(3) =   1
                l(4) =   1
                l(5) =   2
                l(6) =   2
                l(7) =   3
                l(8) =   3
     Q(r) pseudized with 0 coefficients

     PseudoPot. # 2 for C  read from file:
     /shared/home/as3359/pseudo/C.pbesol-n-rrkjus_psl.1.0.0.UPF
     MD5 check sum: 05995be603a8a7c99da3dc4413f31573
     Pseudo is Ultrasoft + core correction, Zval =  4.0
     Generated using &quot;atomic&quot; code by A. Dal Corso  v.6.3MaX
     Using radial grid of 1073 points,  4 beta functions with:
                l(1) =   0
                l(2) =   0
                l(3) =   1
                l(4) =   1
     Q(r) pseudized with 0 coefficients

     PseudoPot. # 3 for H  read from file:
     /shared/home/as3359/pseudo/H.pbesol-rrkjus_psl.0.1.UPF
     MD5 check sum: 1dbb1a5c48b1283557b8117eb856a7ca
     Pseudo is Ultrasoft, Zval =  1.0
     Generated using "atomic" code by A. Dal Corso  v.5.0.2 svn rev. 9415
     Using radial grid of  929 points,  2 beta functions with:
                l(1) =   0
                l(2) =   0
     Q(r) pseudized with 0 coefficients

     atomic species   valence    mass     pseudopotential
        Ta            27.00   180.94788     Ta( 1.00)
        C              4.00    12.01070     C ( 1.00)
        H              1.00     1.00000     H ( 1.00)

      6 Sym. Ops. (no inversion) found

   Cartesian axes

     site n.     atom                  positions (alat units)
         1           C   tau(   1) = (   0.0000000   0.0000000   0.0000000  )
         2           Ta  tau(   2) = (   0.5203090   0.3004005  -0.4156024  )
         3           Ta  tau(   3) = (  -0.0000000   0.6008011   0.4260806  )
         4           H   tau(   4) = (  -0.0000000   0.6008011   1.0359681  )
         5           H   tau(   5) = (   0.5203090   0.3004005  -1.0359681  )

     number of k points=    19  Marzari-Vanderbilt smearing, width (Ry)=  0.0010
                       cart. coord. in units 2pi/alat
        k(    1) = (   0.0000000   0.0000000   0.0000000), wk =   0.0138889
        k(    2) = (   0.0000000   0.0924691   0.0000000), wk =   0.0833333
        k(    3) = (   0.0000000   0.1849383   0.0000000), wk =   0.0833333
        k(    4) = (   0.0000000   0.2774074   0.0000000), wk =   0.0833333
        k(    5) = (   0.0000000   0.3698766   0.0000000), wk =   0.0833333
        k(    6) = (   0.0000000   0.4623457   0.0000000), wk =   0.0833333
        k(    7) = (   0.0000000  -0.5548148   0.0000000), wk =   0.0416667
        k(    8) = (   0.0800806   0.1387037   0.0000000), wk =   0.0833333
        k(    9) = (   0.0800806   0.2311728   0.0000000), wk =   0.1666667
        k(   10) = (   0.0800806   0.3236420   0.0000000), wk =   0.1666667
        k(   11) = (   0.0800806   0.4161111   0.0000000), wk =   0.1666667
        k(   12) = (   0.0800806   0.5085803   0.0000000), wk =   0.1666667
        k(   13) = (   0.1601612   0.2774074   0.0000000), wk =   0.0833333
        k(   14) = (   0.1601612   0.3698766   0.0000000), wk =   0.1666667
        k(   15) = (   0.1601612   0.4623457   0.0000000), wk =   0.1666667
        k(   16) = (   0.1601612   0.5548148   0.0000000), wk =   0.0833333
        k(   17) = (   0.2402419   0.4161111   0.0000000), wk =   0.0833333
        k(   18) = (   0.2402419   0.5085803   0.0000000), wk =   0.1666667
        k(   19) = (   0.3203225   0.5548148   0.0000000), wk =   0.0277778

     Initial potential from superposition of free atoms

     starting charge   59.99840, renormalised to   60.00000

     negative rho (up, down):  4.227E-05 0.000E+00
     Starting wfcs are   40 randomized atomic wfcs

     Self-consistent Calculation

     iteration #  1     ecut=    70.00 Ry     beta= 0.70
     Davidson diagonalization with overlap
     ethr =  1.00E-02,  avg # of iterations =  2.2

     negative rho (up, down):  1.766E-05 0.000E+00

     total energy              =   -1375.11213905 Ry
     estimated scf accuracy    <       0.83501361 Ry

[...]

     End of self-consistent calculation

          k = 0.0000 0.0000 0.0000 ( 15945 PWs)   bands (ev):

   -69.6515 -69.6112 -36.4118 -35.9188 -35.9188 -35.8676 -35.8619 -35.8619
   -21.3170 -21.3081 -21.2808 -21.2808 -21.2667 -21.2667 -21.2502 -21.2461
   -21.2248 -21.2134 -21.2134 -21.2075 -21.2001 -21.2001 -14.7691  -9.2320
    -5.7198  -5.7198  -5.1169  -5.0656  -3.4105  -1.7418  -1.7418   0.3366
     0.3366   1.2591   1.2591   1.7939

[...]

     the Fermi energy is    -1.9295 ev

!    total energy              =   -1375.51953951 Ry
     estimated scf accuracy    <          1.1E-13 Ry
     smearing contrib. (-TS)   =      -0.00001116 Ry
     internal energy E=F+TS    =   -1375.51952835 Ry

     The total energy is F=E-TS. E is the sum of the following terms:
     one-electron contribution =  -11179.86394845 Ry
     hartree contribution      =    5615.80000859 Ry
     xc contribution           =    -140.13414594 Ry
     ewald contribution        =    4328.67855745 Ry

     convergence has been achieved in  20 iterations

[...]

     Forces acting on atoms (cartesian axes, Ry/au):

     atom    1 type  2   force =     0.00000000    0.00000000    0.00722167
     atom    2 type  1   force =     0.00000000    0.00000000   -0.03189240
     atom    3 type  1   force =     0.00000000    0.00000000    0.01217510
     atom    4 type  3   force =     0.00000000    0.00000000   -0.00010965
     atom    5 type  3   force =     0.00000000    0.00000000    0.01260527

     Total force =     0.036390     Total SCF correction =     0.000002

     Computing stress (Cartesian axis) and pressure

     negative rho (up, down):  7.244E-05 0.000E+00
          total   stress  (Ry/bohr**3)                   (kbar)     P=        8.96
   0.00008424  -0.00000000   0.00000000           12.39       -0.00        0.00
  -0.00000000   0.00008424   0.00000000           -0.00       12.39        0.00
   0.00000000  -0.00000000   0.00001430            0.00       -0.00        2.10

     BFGS Geometry Optimization
     Energy error            =      0.0E+00 Ry
     Gradient error          =      3.2E-02 Ry/Bohr
     Cell gradient error     =      1.2E+01 kbar

     number of scf cycles    =   1
     number of bfgs steps    =   0

     enthalpy           new  =   -1375.5195395112 Ry

     new trust radius        =       0.0318923959 bohr
     new conv_thr            =            1.0E-12 Ry

     new unit-cell volume =   1609.97642 a.u.^3 (   238.57389 Ang^3 )
     density =      2.61641 g/cm^3

CELL_PARAMETERS (alat=  5.55000000)
   1.042809473  -0.000000000   0.000000000
  -0.521404736   0.903099495   0.000000000
   0.000000000   0.000000000  10.000000000

ATOMIC_POSITIONS (crystal)
C             0.0000000000        0.0000000000        0.0000000000    0   0   0
Ta            0.6666666670        0.3333333330       -0.0421348772
Ta            0.3333333330        0.6666666670        0.0428274351
H             0.3333333330        0.6666666670        0.1035948311
H             0.6666666670        0.3333333330       -0.1033696847

     Writing output data file /scratch/as3359/Ta2CH2-VCrelax/Ta.save/
     NEW-OLD atomic charge density approx. for the potential

     negative rho (up, down):  7.944E-05 0.000E+00
     extrapolated charge   60.25191, renormalised to   60.00000

[...]

     iteration #  1     ecut=    70.00 Ry     beta= 0.70
     Davidson diagonalization with overlap
     c_bands:  3 eigenvalues not converged
     c_bands:  1 eigenvalues not converged
     c_bands:  2 eigenvalues not converged
     c_bands:  4 eigenvalues not converged
     c_bands:  3 eigenvalues not converged
     c_bands:  4 eigenvalues not converged
     c_bands:  3 eigenvalues not converged
     c_bands:  2 eigenvalues not converged
     c_bands:  4 eigenvalues not converged
     c_bands:  2 eigenvalues not converged
     c_bands:  2 eigenvalues not converged
     c_bands:  5 eigenvalues not converged
     c_bands:  5 eigenvalues not converged
     c_bands:  4 eigenvalues not converged
     c_bands:  5 eigenvalues not converged
     c_bands:  2 eigenvalues not converged
     ethr =  1.00E-06,  avg # of iterations = 21.1

[...]

     iteration #  2     ecut=    70.00 Ry     beta= 0.70
     Davidson diagonalization with overlap
     c_bands:  1 eigenvalues not converged
     ethr =  1.00E-02,  avg # of iterations = 13.1
     Minimization algorithm failed to find Fermi energy: reverting to bisection
     Possible cause: smearing is larger than the electronic band-gap.

[...]

     iteration #  8     ecut=    70.00 Ry     beta= 0.70
     Davidson diagonalization with overlap
     ethr =  1.00E-02,  avg # of iterations =  1.0
     Minimization algorithm failed to find Fermi energy: reverting to bisection
     Possible cause: smearing is larger than the electronic band-gap.

[...]

          k =-0.0000-0.5536 0.0000 ( 15870 PWs)   bands (ev):

[...]

     Energy error            =      1.3E-03 Ry
     Gradient error          =      9.1E-03 Ry/Bohr
     Cell gradient error     =      7.7E+00 kbar

[...]

     enthalpy           old  =   -1375.5195395112 Ry
     enthalpy           new  =   -1375.5208230993 Ry

     CASE: enthalpy          _new < enthalpy          _old

[...]

     iteration #  1     ecut=    70.00 Ry     beta= 0.70
     Davidson diagonalization with overlap
     c_bands:  1 eigenvalues not converged
     c_bands:  1 eigenvalues not converged
     c_bands:  2 eigenvalues not converged
     c_bands:  3 eigenvalues not converged
     c_bands:  5 eigenvalues not converged
     c_bands:  2 eigenvalues not converged
     c_bands:  3 eigenvalues not converged
     c_bands:  2 eigenvalues not converged
     c_bands:  2 eigenvalues not converged
     c_bands:  2 eigenvalues not converged
     c_bands:  4 eigenvalues not converged
     c_bands:  5 eigenvalues not converged
     ethr =  1.00E-06,  avg # of iterations = 23.0
     Minimization algorithm failed to find Fermi energy: reverting to bisection
     Possible cause: smearing is larger than the electronic band-gap.

[...]

     WARNING: integrated charge=    60.00063752, expected=    60.00000000

[...]

     WARNING: integrated charge=    60.00001405, expected=    60.00000000

[...]

     Threshold (ethr) on eigenvalues was too large:
     Diagonalizing with lowered threshold

     Davidson diagonalization with overlap
     ethr =  1.94E-08,  avg # of iterations =  2.6

[...]

     number of scf cycles    =   9
     number of bfgs steps    =   8

     enthalpy           old  =   -1375.5216134991 Ry
     enthalpy           new  =   -1375.5216246113 Ry

     CASE: enthalpy          _new < enthalpy          _old

     new trust radius        =       0.0054032526 bohr
     new conv_thr            =            1.0E-14 Ry

     new unit-cell volume =   1637.08345 a.u.^3 (   242.59074 Ang^3 )
     density =      2.57309 g/cm^3

[...]

ATOMIC_POSITIONS (crystal)
C             0.0000000000        0.0000000000        0.0000000000    0   0   0
Ta            0.6666666670        0.3333333330       -0.0421960807
Ta            0.3333333330        0.6666666670        0.0423606461
H             0.3333333330        0.6666666670        0.1032800646
H             0.6666666670        0.3333333330       -0.1031659839

     Writing output data file /scratch/as3359/Ta2CH2-VCrelax/Ta.save/
     NEW-OLD atomic charge density approx. for the potential

     negative rho (up, down):  9.483E-05 0.000E+00
     extrapolated charge   60.00962, renormalised to   60.00000

[...]

     Energy error            =      5.1E-06 Ry
     Gradient error          =      9.4E-04 Ry/Bohr
     Cell gradient error     =      3.2E-02 kbar

     bfgs converged in  10 scf cycles and   9 bfgs steps
     (criteria: energy <  1.0E-04 Ry, force <  1.0E-03Ry/Bohr, cell <  5.0E-01kbar)

     End of BFGS Geometry Optimization

     Final enthalpy           =   -1375.5216296627 Ry

     File /scratch/as3359/Ta2CH2-VCrelax/Ta.bfgs deleted, as requested
Begin final coordinates
     new unit-cell volume =   1637.08345 a.u.^3 (   242.59074 Ang^3 )
     density =      2.57309 g/cm^3

CELL_PARAMETERS (alat=  5.55000000)
   1.051551672  -0.000000000   0.000000000
  -0.525775836   0.910670461   0.000000000
   0.000000000   0.000000000  10.000000000

ATOMIC_POSITIONS (crystal)
C             0.0000000000        0.0000000000        0.0000000000    0   0   0
Ta            0.6666666670        0.3333333330       -0.0421960807
Ta            0.3333333330        0.6666666670        0.0423606461
H             0.3333333330        0.6666666670        0.1032800646
H             0.6666666670        0.3333333330       -0.1031659839
End final coordinates

     Writing output data file /scratch/as3359/Ta2CH2-VCrelax/Ta.save/

     Final scf calculation at the relaxed structure.
     The G-vectors are recalculated for the final unit cell
     Results may differ from those at the preceding step.

     Using Slab Decomposition

     bravais-lattice index     =            0
     lattice parameter (alat)  =       5.5500  a.u.
     unit-cell volume          =    1637.0834 (a.u.)^3
     number of atoms/cell      =            5
     number of atomic types    =            3
     number of electrons       =        60.00
     number of Kohn-Sham states=           36
     kinetic-energy cutoff     =      70.0000  Ry
     charge density cutoff     =     700.0000  Ry
     scf convergence threshold =      1.0E-14
     mixing beta               =       0.7000
     number of iterations used =            8  plain     mixing
     press convergence thresh. =      5.0E-01
     Exchange-correlation= PBESOL
                           (   1   4  10   8   0   0   0)

     celldm(1)=   5.550000  celldm(2)=   0.000000  celldm(3)=   0.000000
     celldm(4)=   0.000000  celldm(5)=   0.000000  celldm(6)=   0.000000

     crystal axes: (cart. coord. in units of alat)
               a(1) = (   1.051552  -0.000000   0.000000 )
               a(2) = (  -0.525776   0.910670   0.000000 )
               a(3) = (   0.000000   0.000000  10.000000 )

     reciprocal axes: (cart. coord. in units 2 pi/alat)
               b(1) = (  0.950976  0.549046  0.000000 )
               b(2) = (  0.000000  1.098092  0.000000 )
               b(3) = (  0.000000  0.000000  0.100000 )

     PseudoPot. # 1 for Ta read from file:
     /shared/home/as3359/pseudo/Ta.pbesol-spfn-rrkjus_psl.1.0.0.UPF
     MD5 check sum: f099565ffaca9b150a52e9412a28e20b
     Pseudo is Ultrasoft + core correction, Zval = 27.0
     Generated using &quot;atomic&quot; code by A. Dal Corso  v.6.3
     Using radial grid of 1273 points,  8 beta functions with:
                l(1) =   0
                l(2) =   0
                l(3) =   1
                l(4) =   1
                l(5) =   2
                l(6) =   2
                l(7) =   3
                l(8) =   3
     Q(r) pseudized with 0 coefficients

     PseudoPot. # 2 for C  read from file:
     /shared/home/as3359/pseudo/C.pbesol-n-rrkjus_psl.1.0.0.UPF
     MD5 check sum: 05995be603a8a7c99da3dc4413f31573
     Pseudo is Ultrasoft + core correction, Zval =  4.0
     Generated using &quot;atomic&quot; code by A. Dal Corso  v.6.3MaX
     Using radial grid of 1073 points,  4 beta functions with:
                l(1) =   0
                l(2) =   0
                l(3) =   1
                l(4) =   1
     Q(r) pseudized with 0 coefficients

     PseudoPot. # 3 for H  read from file:
     /shared/home/as3359/pseudo/H.pbesol-rrkjus_psl.0.1.UPF
     MD5 check sum: 1dbb1a5c48b1283557b8117eb856a7ca
     Pseudo is Ultrasoft, Zval =  1.0
     Generated using "atomic" code by A. Dal Corso  v.5.0.2 svn rev. 9415
     Using radial grid of  929 points,  2 beta functions with:
                l(1) =   0
                l(2) =   0
     Q(r) pseudized with 0 coefficients

     atomic species   valence    mass     pseudopotential
        Ta            27.00   180.94788     Ta( 1.00)
        C              4.00    12.01070     C ( 1.00)
        H              1.00     1.00000     H ( 1.00)

      6 Sym. Ops. (no inversion) found

   Cartesian axes

     site n.     atom                  positions (alat units)
         1           C   tau(   1) = (   0.0000000   0.0000000   0.0000000  )
         2           Ta  tau(   2) = (   0.5257758   0.3035568  -0.4219608  )
         3           Ta  tau(   3) = (  -0.0000000   0.6071136   0.4236065  )
         4           H   tau(   4) = (  -0.0000000   0.6071136   1.0328006  )
         5           H   tau(   5) = (   0.5257758   0.3035568  -1.0316598  )

     number of k points=    19  Marzari-Vanderbilt smearing, width (Ry)=  0.0010
                       cart. coord. in units 2pi/alat
        k(    1) = (   0.0000000   0.0000000   0.0000000), wk =   0.0138889
        k(    2) = (   0.0000000   0.0915077   0.0000000), wk =   0.0833333
        k(    3) = (   0.0000000   0.1830153   0.0000000), wk =   0.0833333
        k(    4) = (   0.0000000   0.2745230   0.0000000), wk =   0.0833333
        k(    5) = (   0.0000000   0.3660307   0.0000000), wk =   0.0833333
        k(    6) = (   0.0000000   0.4575384   0.0000000), wk =   0.0833333
        k(    7) = (  -0.0000000  -0.5490460   0.0000000), wk =   0.0416667
        k(    8) = (   0.0792480   0.1372615   0.0000000), wk =   0.0833333
        k(    9) = (   0.0792480   0.2287692   0.0000000), wk =   0.1666667
        k(   10) = (   0.0792480   0.3202769   0.0000000), wk =   0.1666667
        k(   11) = (   0.0792480   0.4117845   0.0000000), wk =   0.1666667
        k(   12) = (   0.0792480   0.5032922   0.0000000), wk =   0.1666667
        k(   13) = (   0.1584959   0.2745230   0.0000000), wk =   0.0833333
        k(   14) = (   0.1584959   0.3660307   0.0000000), wk =   0.1666667
        k(   15) = (   0.1584959   0.4575384   0.0000000), wk =   0.1666667
        k(   16) = (   0.1584959   0.5490460   0.0000000), wk =   0.0833333
        k(   17) = (   0.2377439   0.4117845   0.0000000), wk =   0.0833333
        k(   18) = (   0.2377439   0.5032922   0.0000000), wk =   0.1666667
        k(   19) = (   0.3169919   0.5490460   0.0000000), wk =   0.0277778

     Initial potential from superposition of free atoms

     starting charge   59.99840, renormalised to   60.00000

     negative rho (up, down):  4.301E-05 0.000E+00
     Starting wfcs are   40 randomized atomic wfcs

     Self-consistent Calculation

[...]

     iteration # 11     ecut=    70.00 Ry     beta= 0.70
     Davidson diagonalization with overlap
     c_bands:  1 eigenvalues not converged
     ethr =  1.20E-07,  avg # of iterations =  3.9

[...]

     total energy              =   -1375.52177728 Ry
     estimated scf accuracy    <          2.4E-14 Ry

     iteration # 23     ecut=    70.00 Ry     beta= 0.70
     Davidson diagonalization with overlap
     ethr =  1.00E-13,  avg # of iterations =  1.0

[...]

     End of self-consistent calculation

[...]

          k =-0.0000-0.5490 0.0000 ( 16198 PWs)   bands (ev):

[...]

          k = 0.3170 0.5490 0.0000 ( 16218 PWs)   bands (ev):

   -69.7001 -69.6983 -36.5590 -36.4850 -36.4846 -36.3836 -36.0588 -36.0573
   -21.4193 -21.4173 -21.4039 -21.3923 -21.3903 -21.3852 -21.3829 -21.3802
   -21.3567 -21.3462 -21.3438 -21.3348 -21.3194 -21.3171 -13.0186  -7.5480
    -7.5408  -6.0148  -2.9064  -2.9007  -2.5505  -2.3623  -2.3585  -1.1137
     1.3640   1.3845   3.4449   3.4451

     the Fermi energy is    -1.9778 ev

!    total energy              =   -1375.52177728 Ry
     estimated scf accuracy    <          1.6E-15 Ry
     smearing contrib. (-TS)   =      -0.00001971 Ry
     internal energy E=F+TS    =   -1375.52175757 Ry

     The total energy is F=E-TS. E is the sum of the following terms:
     one-electron contribution =  -10966.62468014 Ry
     hartree contribution      =    5508.94132292 Ry
     xc contribution           =    -140.06660508 Ry
     ewald contribution        =    4222.22820473 Ry

     convergence has been achieved in  23 iterations

     negative rho (up, down):  7.133E-05 0.000E+00

     Forces acting on atoms (cartesian axes, Ry/au):

     atom    1 type  2   force =     0.00000000    0.00000000    0.00103011
     atom    2 type  1   force =     0.00000000    0.00000000   -0.00069314
     atom    3 type  1   force =     0.00000000    0.00000000   -0.00095503
     atom    4 type  3   force =     0.00000000    0.00000000    0.00011944
     atom    5 type  3   force =    -0.00000000   -0.00000000    0.00049862

     Total force =     0.001287     Total SCF correction =     0.000000

     Computing stress (Cartesian axis) and pressure

     negative rho (up, down):  7.133E-05 0.000E+00
          total   stress  (Ry/bohr**3)                   (kbar)     P=       -0.15
   0.00000125  -0.00000000   0.00000000            0.18       -0.00        0.00
  -0.00000000   0.00000125   0.00000000           -0.00        0.18        0.00
   0.00000000   0.00000000  -0.00000553            0.00        0.00       -0.81

     Writing output data file /scratch/as3359/Ta2CH2-VCrelax/Ta.save/

     General routines

     Parallel routines

   This run was terminated on:   8:25:13  22Apr2022

   JOB DONE.